    &CONTROL 
calculation = 'scf'
prefix='model'
pseudo_dir = './'
outdir='./'
tstress=.true.
tprnfor = .true.
forc_conv_thr=1.0d-4
nstep=200
/
    &SYSTEM 
ibrav=0
celldm(1)=1.889726
nat=8
ntyp=3 
ecutwfc=36
/ 
    &ELECTRONS
mixing_beta=0.7
conv_thr =  1.0d-8
electron_maxstep=200
/
    &IONS
trust_radius_max=0.2
/
    &CELL
cell_dynamics='bfgs'
/
ATOMIC_SPECIES
  Na1  22.9898  Na1.UPF
  O1  15.9994  O1.UPF
  N1  14.0067  N1.UPF

CELL_PARAMETERS (alat) 
   3.5500000000    0.0000000000    0.0000000000
   0.0000000000    5.5600000000    0.0000000000
   0.0000000000    0.0000000000    5.3700000000

ATOMIC_POSITIONS (crystal)
Na       0.000000000     0.583000000     0.000000000
 N       0.000000000     0.083000000     0.000000000
 O       0.000000000     0.000000000     0.194000000
 O       0.500000000     0.500000000     0.306000000
 O       0.500000000     0.500000000     0.694000000
 N       0.500000000     0.583000000     0.500000000
Na       0.500000000     0.083000000     0.500000000
 O       0.000000000     0.000000000    -0.194000000
K_POINTS {automatic}
 4 4 4  1 1 1 
