    &CONTROL 
calculation = 'scf'
prefix='model'
pseudo_dir = './'
outdir='./'
tstress=.true.
tprnfor = .true.
forc_conv_thr=1.0d-4
nstep=200
/
    &SYSTEM 
ibrav=0
celldm(1)=1.889726
nat=144
ntyp=36 
ecutwfc=36
/ 
    &ELECTRONS
mixing_beta=0.7
conv_thr =  1.0d-8
electron_maxstep=200
/
    &IONS
trust_radius_max=0.2
/
    &CELL
cell_dynamics='bfgs'
/
ATOMIC_SPECIES
  N1  14.0067  N1.UPF
  N2  14.0067  N2.UPF
  N3  14.0067  N3.UPF
  C1  12.0110  C1.UPF
  N5  14.0067  N5.UPF
  C2  12.0110  C2.UPF
  C3  12.0110  C3.UPF
  C4  12.0110  C4.UPF
  C5  12.0110  C5.UPF
  N4  14.0067  N4.UPF
  N8  14.0067  N8.UPF
  C6  12.0110  C6.UPF
  N7  14.0067  N7.UPF
  N9  14.0067  N9.UPF
  N6  14.0067  N6.UPF
  O10  15.9994  O10.UPF
  O11  15.9994  O11.UPF
  O12  15.9994  O12.UPF
  N10  14.0067  N10.UPF
  N11  14.0067  N11.UPF
  N12  14.0067  N12.UPF
  O1  15.9994  O1.UPF
  O2  15.9994  O2.UPF
  O3  15.9994  O3.UPF
  O4  15.9994  O4.UPF
  O5  15.9994  O5.UPF
  O6  15.9994  O6.UPF
  O7  15.9994  O7.UPF
  O8  15.9994  O8.UPF
  O9  15.9994  O9.UPF
  H1   1.0079  H1.UPF
  H2   1.0079  H2.UPF
  H3   1.0079  H3.UPF
  H4   1.0079  H4.UPF
  H5   1.0079  H5.UPF
  H6   1.0079  H6.UPF

CELL_PARAMETERS (alat) 
  13.2272000000    0.0000000000    0.0000000000
   0.0000000000    8.1692000000    0.0000000000
  -4.8886446834    0.0000000000   14.0667273081

ATOMIC_POSITIONS (crystal)
 N       0.013490000     0.457400000     0.345580000
 C       0.107070000     0.513400000     0.323410000
 H       0.169800000     0.455000000     0.355800000
 O       0.116040000     0.299200000     0.462690000
 O      -0.046330000     0.350400000     0.456020000
 C      -0.063110000     0.592600000     0.326150000
 H      -0.099400000     0.592900000     0.368800000
 N       0.030250000     0.363700000     0.428370000
 N       0.115980000     0.686100000     0.348910000
 C       0.006650000     0.750000000     0.329630000
 H       0.006500000     0.825000000     0.378000000
 O       0.183780000     0.866500000     0.465440000
 C       0.084100000     0.501200000     0.211780000
 H       0.137200000     0.437000000     0.200000000
 O       0.262460000     0.631700000     0.474090000
 N       0.192870000     0.730200000     0.437600000
 N      -0.029480000     0.829070000     0.238810000
 C      -0.098570000     0.574100000     0.153630000
 H      -0.152900000     0.560800000     0.098000000
 O      -0.014700000     1.071600000     0.307540000
 C      -0.031060000     0.733400000     0.157180000
 H      -0.059300000     0.796000000     0.102200000
 O      -0.060850000     1.057400000     0.153600000
 N      -0.033670000     0.998800000     0.232630000
 N      -0.140640000     0.578400000     0.231480000
 O      -0.243890000     0.442000000     0.297560000
 O      -0.271620000     0.410800000     0.147410000
 N      -0.224830000     0.466900000     0.224960000
 O      -0.123250000     0.343200000     0.020500000
 N      -0.022280000     0.435940000     0.164360000
 N      -0.033100000     0.358000000     0.074740000
 O       0.048270000     0.308100000     0.063650000
 N       0.072850000     0.660590000     0.165740000
 O       0.248310000     0.690900000     0.209070000
 N       0.161580000     0.758300000     0.179010000
 O       0.145060000     0.900700000     0.157400000
 O       0.645060000     0.599300000     0.657400000
 N       0.661580000     0.741700000     0.679010000
 O       0.748310000     0.809100000     0.709070000
 N       0.572850000     0.839410000     0.665740000
 O       0.548270000     1.191900000     0.563650000
 N       0.466900000     1.142000000     0.574740000
 N       0.477720000     1.064060000     0.664360000
 O       0.376750000     1.156800000     0.520500000
 N       0.275170000     1.033100000     0.724960000
 O       0.228380000     1.089200000     0.647410000
 O       0.256110000     1.058000000     0.797560000
 N       0.359360000     0.921600000     0.731480000
 N       0.466330000     0.501200000     0.732630000
 O       0.439150000     0.442600000     0.653600000
 H       0.440700000     0.704000000     0.602200000
 C       0.468940000     0.766600000     0.657180000
 O       0.485300000     0.428400000     0.807540000
 H       0.347100000     0.939200000     0.598000000
 C       0.401430000     0.925900000     0.653630000
 N       0.470520000     0.670930000     0.738810000
 N       0.692870000     0.769800000     0.937600000
 O       0.762460000     0.868300000     0.974090000
 H       0.637200000     1.063000000     0.700000000
 C       0.584100000     0.998800000     0.711780000
 O       0.683780000     0.633500000     0.965440000
 H       0.506500000     0.675000000     0.878000000
 C       0.506650000     0.750000000     0.829630000
 N       0.615980000     0.813900000     0.848910000
 N       0.530250000     1.136300000     0.928370000
 H       0.400600000     0.907100000     0.868800000
 C       0.436890000     0.907400000     0.826150000
 O       0.453670000     1.149600000     0.956020000
 O       0.616040000     1.200800000     0.962690000
 H       0.669800000     1.045000000     0.855800000
 C       0.607070000     0.986600000     0.823410000
 N       0.513490000     1.042600000     0.845580000
 O       0.854940000     0.099300000     0.842600000
 N       0.838420000     0.241700000     0.820990000
 O       0.751690000     0.309100000     0.790930000
 N       0.927150000     0.339410000     0.834260000
 O       0.951730000     0.691900000     0.936350000
 N       1.033100000     0.642000000     0.925260000
 N       1.022280000     0.564060000     0.835640000
 O       1.123250000     0.656800000     0.979500000
 N       1.224830000     0.533100000     0.775040000
 O       1.271620000     0.589200000     0.852590000
 O       1.243890000     0.558000000     0.702440000
 N       1.140640000     0.421600000     0.768520000
 N       1.033670000     0.001200000     0.767370000
 O       1.060850000    -0.057400000     0.846400000
 H       1.059300000     0.204000000     0.897800000
 C       1.031060000     0.266600000     0.842820000
 O       1.014700000    -0.071600000     0.692460000
 H       1.152900000     0.439200000     0.902000000
 C       1.098570000     0.425900000     0.846370000
 N       1.029480000     0.170930000     0.761190000
 N       0.807130000     0.269800000     0.562400000
 O       0.737540000     0.368300000     0.525910000
 H       0.862800000     0.563000000     0.800000000
 C       0.915900000     0.498800000     0.788220000
 O       0.816220000     0.133500000     0.534560000
 H       0.993500000     0.175000000     0.622000000
 C       0.993350000     0.250000000     0.670370000
 N       0.884020000     0.313900000     0.651090000
 N       0.969750000     0.636300000     0.571630000
 H       1.099400000     0.407100000     0.631200000
 C       1.063110000     0.407400000     0.673850000
 O       1.046330000     0.649600000     0.543980000
 O       0.883960000     0.700800000     0.537310000
 H       0.830200000     0.545000000     0.644200000
 C       0.892930000     0.486600000     0.676590000
 N       0.986510000     0.542600000     0.654420000
 O       0.354940000     0.400700000     0.342600000
 N       0.338420000     0.258300000     0.320990000
 O       0.251690000     0.190900000     0.290930000
 N       0.427150000     0.160590000     0.334260000
 O       0.451730000    -0.191900000     0.436350000
 N       0.533100000    -0.142000000     0.425260000
 N       0.522280000    -0.064060000     0.335640000
 O       0.623250000    -0.156800000     0.479500000
 N       0.724830000    -0.033100000     0.275040000
 O       0.771620000    -0.089200000     0.352590000
 O       0.743890000    -0.058000000     0.202440000
 N       0.640640000     0.078400000     0.268520000
 N       0.533670000     0.498800000     0.267370000
 O       0.560850000     0.557400000     0.346400000
 H       0.559300000     0.296000000     0.397800000
 C       0.531060000     0.233400000     0.342820000
 O       0.514700000     0.571600000     0.192460000
 H       0.652900000     0.060800000     0.402000000
 C       0.598570000     0.074100000     0.346370000
 N       0.529480000     0.329070000     0.261190000
 N       0.307130000     0.230200000     0.062400000
 O       0.237540000     0.131700000     0.025910000
 H       0.362800000    -0.063000000     0.300000000
 C       0.415900000     0.001200000     0.288220000
 O       0.316220000     0.366500000     0.034560000
 H       0.493500000     0.325000000     0.122000000
 C       0.493350000     0.250000000     0.170370000
 N       0.384020000     0.186100000     0.151090000
 N       0.469750000    -0.136300000     0.071630000
 H       0.599400000     0.092900000     0.131200000
 C       0.563110000     0.092600000     0.173850000
 O       0.546330000    -0.149600000     0.043980000
 O       0.383960000    -0.200800000     0.037310000
 H       0.330200000    -0.045000000     0.144200000
 C       0.392930000     0.013400000     0.176590000
 N       0.486510000    -0.042600000     0.154420000
K_POINTS {automatic}
 4 4 4  1 1 1 
