    &CONTROL 
calculation = 'scf'
prefix='model'
pseudo_dir = './'
outdir='./'
tstress=.true.
tprnfor = .true.
forc_conv_thr=1.0d-4
nstep=200
/
    &SYSTEM 
ibrav=0
celldm(1)=1.889726
nat=144
ntyp=36 
ecutwfc=36
/ 
    &ELECTRONS
mixing_beta=0.7
conv_thr =  1.0d-8
electron_maxstep=200
/
    &IONS
trust_radius_max=0.2
/
    &CELL
cell_dynamics='bfgs'
/
ATOMIC_SPECIES
  N1  14.0067  N1.UPF
  N2  14.0067  N2.UPF
  N3  14.0067  N3.UPF
  C11  12.0110  C11.UPF
  N4  14.0067  N4.UPF
  N5  14.0067  N5.UPF
  N6  14.0067  N6.UPF
  N7  14.0067  N7.UPF
  N8  14.0067  N8.UPF
  C1  12.0110  C1.UPF
  C5  12.0110  C5.UPF
  C3  12.0110  C3.UPF
  C7  12.0110  C7.UPF
  N9  14.0067  N9.UPF
  O10  15.9994  O10.UPF
  C9  12.0110  C9.UPF
  O11  15.9994  O11.UPF
  H11   1.0079  H11.UPF
  O12  15.9994  O12.UPF
  N10  14.0067  N10.UPF
  N11  14.0067  N11.UPF
  N12  14.0067  N12.UPF
  O1  15.9994  O1.UPF
  O2  15.9994  O2.UPF
  O3  15.9994  O3.UPF
  O4  15.9994  O4.UPF
  O5  15.9994  O5.UPF
  O6  15.9994  O6.UPF
  O7  15.9994  O7.UPF
  O8  15.9994  O8.UPF
  O9  15.9994  O9.UPF
  H1   1.0079  H1.UPF
  H3   1.0079  H3.UPF
  H5   1.0079  H5.UPF
  H7   1.0079  H7.UPF
  H9   1.0079  H9.UPF

CELL_PARAMETERS (alat) 
   8.8212000000    0.0000000000    0.0000000000
   0.0000000000   12.5368000000    0.0000000000
  -3.8402924705    0.0000000000   12.7679694056

ATOMIC_POSITIONS (crystal)
 C       0.431800000     0.765120000     0.213420000
 H       0.385000000     0.704700000     0.184300000
 C       0.659500000     0.881390000     0.221550000
 H       0.752000000     0.884300000     0.195300000
 C       0.586100000     0.938350000     0.374520000
 H       0.627000000     0.963800000     0.442700000
 C       0.546400000     0.980660000     0.192600000
 H       0.581000000     1.030600000     0.151200000
 C       0.317000000     0.863590000     0.183270000
 H       0.218000000     0.846100000     0.134700000
 C       0.437900000     0.862880000     0.366530000
 H       0.419000000     0.859400000     0.427300000
 N       0.647000000     0.701400000     0.146430000
 N       0.568520000     0.787320000     0.178720000
 N       0.787000000     0.801620000     0.395720000
 N       0.707480000     0.886530000     0.337290000
 N       0.451200000     1.103880000     0.304810000
 N       0.552320000     1.022680000     0.296730000
 N       0.312900000     0.987750000     0.038510000
 N       0.389650000     0.945870000     0.136320000
 N       0.150900000     0.893810000     0.302090000
 N       0.302300000     0.903280000     0.283690000
 N       0.418300000     0.668300000     0.372680000
 N       0.472900000     0.759090000     0.328640000
 O       0.589700000     0.613460000     0.146920000
 O       0.761650000     0.724670000     0.117810000
 O       0.848350000     0.738000000     0.350370000
 O       0.789850000     0.799720000     0.487610000
 O       0.421990000     1.112480000     0.388890000
 O       0.404080000     1.161020000     0.228320000
 O       0.190800000     0.944930000    -0.009860000
 O       0.376110000     1.063850000     0.009340000
 O       0.037820000     0.883810000     0.225450000
 O       0.151400000     0.903520000     0.392990000
 O       0.401600000     0.680000000     0.458960000
 O       0.401990000     0.586920000     0.321300000
 O       0.901990000     0.913080000     0.821300000
 O       0.901600000     0.820000000     0.958960000
 O       0.651400000     0.596480000     0.892990000
 O       0.537820000     0.616190000     0.725450000
 O       0.876110000     0.436150000     0.509340000
 O       0.690800000     0.555070000     0.490140000
 O       0.904080000     0.338980000     0.728320000
 O       0.921990000     0.387520000     0.888890000
 O       1.289850000     0.700280000     0.987610000
 O       1.348350000     0.762000000     0.850370000
 O       1.261650000     0.775330000     0.617810000
 O       1.089700000     0.886540000     0.646920000
 N       0.972900000     0.740910000     0.828640000
 N       0.918300000     0.831700000     0.872680000
 N       0.802300000     0.596720000     0.783690000
 N       0.650900000     0.606190000     0.802090000
 N       0.889650000     0.554130000     0.636320000
 N       0.812900000     0.512250000     0.538510000
 N       1.052320000     0.477320000     0.796730000
 N       0.951200000     0.396120000     0.804810000
 N       1.207480000     0.613470000     0.837290000
 N       1.287000000     0.698380000     0.895720000
 N       1.068520000     0.712680000     0.678720000
 N       1.147000000     0.798600000     0.646430000
 H       0.919000000     0.640600000     0.927300000
 C       0.937900000     0.637120000     0.866530000
 H       0.718000000     0.653900000     0.634700000
 C       0.817000000     0.636410000     0.683270000
 H       1.081000000     0.469400000     0.651200000
 C       1.046400000     0.519340000     0.692600000
 H       1.127000000     0.536200000     0.942700000
 C       1.086100000     0.561650000     0.874520000
 H       1.252000000     0.615700000     0.695300000
 C       1.159500000     0.618610000     0.721550000
 H       0.885000000     0.795300000     0.684300000
 C       0.931800000     0.734880000     0.713420000
 O       0.598010000     0.413080000     0.678700000
 O       0.598400000     0.320000000     0.541040000
 O       0.848600000     0.096480000     0.607010000
 O       0.962180000     0.116190000     0.774550000
 O       0.623890000    -0.063850000     0.990660000
 O       0.809200000     0.055070000     1.009860000
 O       0.595920000    -0.161020000     0.771680000
 O       0.578010000    -0.112480000     0.611110000
 O       0.210150000     0.200280000     0.512390000
 O       0.151650000     0.262000000     0.649630000
 O       0.238350000     0.275330000     0.882190000
 O       0.410300000     0.386540000     0.853080000
 N       0.527100000     0.240910000     0.671360000
 N       0.581700000     0.331700000     0.627320000
 N       0.697700000     0.096720000     0.716310000
 N       0.849100000     0.106190000     0.697910000
 N       0.610350000     0.054130000     0.863680000
 N       0.687100000     0.012250000     0.961490000
 N       0.447680000    -0.022680000     0.703270000
 N       0.548800000    -0.103880000     0.695190000
 N       0.292520000     0.113470000     0.662710000
 N       0.213000000     0.198380000     0.604280000
 N       0.431480000     0.212680000     0.821280000
 N       0.353000000     0.298600000     0.853570000
 H       0.581000000     0.140600000     0.572700000
 C       0.562100000     0.137120000     0.633470000
 H       0.782000000     0.153900000     0.865300000
 C       0.683000000     0.136410000     0.816730000
 H       0.419000000    -0.030600000     0.848800000
 C       0.453600000     0.019340000     0.807400000
 H       0.373000000     0.036200000     0.557300000
 C       0.413900000     0.061650000     0.625480000
 H       0.248000000     0.115700000     0.804700000
 C       0.340500000     0.118610000     0.778450000
 H       0.615000000     0.295300000     0.815700000
 C       0.568200000     0.234880000     0.786580000
 O       0.098010000     0.086920000     0.178700000
 O       0.098400000     0.180000000     0.041040000
 O       0.348600000     0.403520000     0.107010000
 O       0.462180000     0.383810000     0.274550000
 O       0.123890000     0.563850000     0.490660000
 O       0.309200000     0.444930000     0.509860000
 O       0.095920000     0.661020000     0.271680000
 O       0.078010000     0.612480000     0.111110000
 O      -0.289850000     0.299720000     0.012390000
 O      -0.348350000     0.238000000     0.149630000
 O      -0.261650000     0.224670000     0.382190000
 O      -0.089700000     0.113460000     0.353080000
 N       0.027100000     0.259090000     0.171360000
 N       0.081700000     0.168300000     0.127320000
 N       0.197700000     0.403280000     0.216310000
 N       0.349100000     0.393810000     0.197910000
 N       0.110350000     0.445870000     0.363680000
 N       0.187100000     0.487750000     0.461490000
 N      -0.052320000     0.522680000     0.203270000
 N       0.048800000     0.603880000     0.195190000
 N      -0.207480000     0.386530000     0.162710000
 N      -0.287000000     0.301620000     0.104280000
 N      -0.068520000     0.287320000     0.321280000
 N      -0.147000000     0.201400000     0.353570000
 H       0.081000000     0.359400000     0.072700000
 C       0.062100000     0.362880000     0.133470000
 H       0.282000000     0.346100000     0.365300000
 C       0.183000000     0.363590000     0.316730000
 H      -0.081000000     0.530600000     0.348800000
 C      -0.046400000     0.480660000     0.307400000
 H      -0.127000000     0.463800000     0.057300000
 C      -0.086100000     0.438350000     0.125480000
 H      -0.252000000     0.384300000     0.304700000
 C      -0.159500000     0.381390000     0.278450000
 H       0.115000000     0.204700000     0.315700000
 C       0.068200000     0.265120000     0.286580000
K_POINTS {automatic}
 4 4 4  1 1 1 
