    &CONTROL 
calculation = 'scf'
prefix='HMT.3959.mol'
pseudo_dir = './'
outdir='./'
tstress=.true.
tprnfor = .true.
forc_conv_thr=1.0d-4
nstep=200
/
    &SYSTEM 
ibrav=0
celldm(1)=1.889726
nat=22
ntyp=3 
ecutwfc=36
/ 
    &ELECTRONS
mixing_beta=0.7
conv_thr =  1.0d-8
electron_maxstep=200
/
    &IONS
trust_radius_max=0.2
/
    &CELL
cell_dynamics='bfgs'
/
ATOMIC_SPECIES
   C  12.0110   C.UPF
   N  14.0067   N.UPF
   H   1.0079   H.UPF

CELL_PARAMETERS (alat) 
   1.0000000000    0.0000000000    0.0000000000
   0.0000000000    1.0000000000    0.0000000000
   0.0000000000    0.0000000000    1.0000000000

ATOMIC_POSITIONS (crystal)
 N      -1.291000000    -0.363000000     0.686500000
 N       1.143500000    -0.697800000     0.686500000
 N       0.203800000     1.487000000     0.070700000
 N      -0.060300000    -0.433600000    -1.438900000
 C      -0.145100000    -1.050600000     1.367700000
 C      -1.083300000     1.120200000     0.749000000
 C      -1.344900000    -0.788800000    -0.750500000
 C       1.342900000     0.786900000     0.750100000
 C       1.079300000    -1.123300000    -0.750500000
 C       0.147600000     1.049700000    -1.362500000
 H      -0.293600000    -2.134300000     1.374100000
 H      -0.106500000    -0.773400000     2.425700000
 H      -1.085700000     1.466100000     1.786900000
 H      -1.924500000     1.644500000     0.285300000
 H      -1.541500000    -1.862000000    -0.828200000
 H      -2.193200000    -0.318600000    -1.257200000
 H       1.438100000     1.120000000     1.787900000
 H       2.294600000     1.065500000     0.287000000
 H       0.978400000    -2.209700000    -0.828800000
 H       2.023000000    -0.900200000    -1.257900000
 H      -0.646600000     1.579400000    -1.896600000
 H       1.065000000     1.335900000    -1.886200000
K_POINTS {automatic}
 4 4 4  1 1 1 
