    &CONTROL 
calculation = 'scf'
prefix='HMT.CID.4101.sdf'
pseudo_dir = './'
outdir='./'
tstress=.true.
tprnfor = .true.
forc_conv_thr=1.0d-4
nstep=200
/
    &SYSTEM 
ibrav=0
celldm(1)=1.889726
nat=22
ntyp=3 
ecutwfc=36
/ 
    &ELECTRONS
mixing_beta=0.7
conv_thr =  1.0d-8
electron_maxstep=200
/
    &IONS
trust_radius_max=0.2
/
    &CELL
cell_dynamics='bfgs'
/
ATOMIC_SPECIES
   C  12.0110   C.UPF
   N  14.0067   N.UPF
   H   1.0079   H.UPF

CELL_PARAMETERS (alat) 
   1.0000000000    0.0000000000    0.0000000000
   0.0000000000    1.0000000000    0.0000000000
   0.0000000000    0.0000000000    1.0000000000

ATOMIC_POSITIONS (crystal)
 N       0.747700000    -1.114100000     0.681700000
 N      -0.816600000    -0.563100000    -1.131800000
 N       0.980900000     1.005200000    -0.540800000
 N      -0.912000000     0.672000000     0.990800000
 C      -0.067500000    -1.641100000    -0.440400000
 C       1.691600000    -0.106500000     0.137900000
 C      -0.160700000    -0.432700000     1.636500000
 C       0.160700000     0.432700000    -1.636600000
 C      -1.691600000     0.106600000    -0.137900000
 C       0.067500000     1.641100000     0.440500000
 H       0.577800000    -2.166400000    -1.156600000
 H      -0.765700000    -2.402800000    -0.069500000
 H       2.321100000     0.290000000     0.945500000
 H       2.388800000    -0.586600000    -0.561300000
 H      -0.861700000    -1.158900000     2.068600000
 H       0.414200000    -0.045800000     2.488200000
 H       0.812800000    -0.031500000    -2.388200000
 H      -0.365300000     1.236100000    -2.168700000
 H      -2.272200000     0.900400000    -0.625900000
 H      -2.437700000    -0.603800000     0.241800000
 H       0.649200000     2.089000000     1.256900000
 H      -0.461300000     2.480200000    -0.030400000
K_POINTS {automatic}
 4 4 4  1 1 1 
