    &CONTROL 
calculation = 'scf'
prefix='112TCE_100K'
pseudo_dir = './'
outdir='./'
tstress=.true.
tprnfor = .true.
forc_conv_thr=1.0d-4
nstep=200
/
    &SYSTEM 
ibrav=0
celldm(1)=1.889726
nat=32
ntyp=8 
ecutwfc=36
/ 
    &ELECTRONS
mixing_beta=0.7
conv_thr =  1.0d-8
electron_maxstep=200
/
    &IONS
trust_radius_max=0.2
/
    &CELL
cell_dynamics='bfgs'
/
ATOMIC_SPECIES
  C1  12.0110  C1.UPF
  C2  12.0110  C2.UPF
  H11   1.0079  H11.UPF
  H21   1.0079  H21.UPF
  H22   1.0079  H22.UPF
  Cl1  35.4527  Cl1.UPF
  Cl2  35.4527  Cl2.UPF
  Cl3  35.4527  Cl3.UPF

CELL_PARAMETERS (alat) 
   5.1516000000    0.0000000000    0.0000000000
   0.0000000000    8.5488000000    0.0000000000
  -0.5154699872    0.0000000000   11.3427933483

ATOMIC_POSITIONS (crystal)
Cl       0.492670000     0.342800000     0.108160000
Cl       0.783190000     0.050100000     0.115830000
Cl       1.007000000     0.150710000     0.380630000
 C       0.766600000     0.242600000     0.175290000
 H       0.925900000     0.299500000     0.158500000
 C       0.732700000     0.241600000     0.306270000
 H       0.575700000     0.184900000     0.323400000
 H       0.715100000     0.348100000     0.334300000
 H       0.715100000     0.151900000     0.834300000
 H       0.575700000     0.315100000     0.823400000
 C       0.732700000     0.258400000     0.806270000
 H       0.925900000     0.200500000     0.658500000
 C       0.766600000     0.257400000     0.675290000
Cl       1.007000000     0.349290000     0.880630000
Cl       0.783190000     0.449900000     0.615830000
Cl       0.492670000     0.157200000     0.608160000
 H       0.284900000     0.651900000     0.665700000
 H       0.424300000     0.815100000     0.676600000
 C       0.267300000     0.758400000     0.693730000
 H       0.074100000     0.700500000     0.841500000
 C       0.233400000     0.757400000     0.824710000
Cl      -0.007000000     0.849290000     0.619370000
Cl       0.216810000     0.949900000     0.884170000
Cl       0.507330000     0.657200000     0.891840000
 H       0.284900000     0.848100000     0.165700000
 H       0.424300000     0.684900000     0.176600000
 C       0.267300000     0.741600000     0.193730000
 H       0.074100000     0.799500000     0.341500000
 C       0.233400000     0.742600000     0.324710000
Cl      -0.007000000     0.650710000     0.119370000
Cl       0.216810000     0.550100000     0.384170000
Cl       0.507330000     0.842800000     0.391840000
K_POINTS {automatic}
 4 4 4  1 1 1 
