    &CONTROL 
calculation = 'scf'
prefix='112TCE_220K'
pseudo_dir = './'
outdir='./'
tstress=.true.
tprnfor = .true.
forc_conv_thr=1.0d-4
nstep=200
/
    &SYSTEM 
ibrav=0
celldm(1)=1.889726
nat=52
ntyp=13 
ecutwfc=36
/ 
    &ELECTRONS
mixing_beta=0.7
conv_thr =  1.0d-8
electron_maxstep=200
/
    &IONS
trust_radius_max=0.2
/
    &CELL
cell_dynamics='bfgs'
/
ATOMIC_SPECIES
  H221   1.0079  H221.UPF
  C11  12.0110  C11.UPF
  C12  12.0110  C12.UPF
  C21  12.0110  C21.UPF
  C22  12.0110  C22.UPF
  H222   1.0079  H222.UPF
  H11   1.0079  H11.UPF
  H12   1.0079  H12.UPF
  Cl1  35.4527  Cl1.UPF
  Cl2  35.4527  Cl2.UPF
  Cl3  35.4527  Cl3.UPF
  H211   1.0079  H211.UPF
  H212   1.0079  H212.UPF

CELL_PARAMETERS (alat) 
   5.2875000000    0.0000000000    0.0000000000
   0.0000000000    8.8172000000    0.0000000000
  -0.6090248895    0.0000000000   11.1695085789

ATOMIC_POSITIONS (crystal)
Cl       0.489200000     0.337280000     0.108750000
Cl       0.779300000     0.050240000     0.112290000
Cl       1.011600000     0.146020000     0.373690000
 C       0.762900000     0.237300000     0.173200000
 H       0.916200000     0.293000000     0.154600000
 C       0.741400000     0.236600000     0.302600000
 H       0.588800000     0.183000000     0.322200000
 H       0.729500000     0.339900000     0.331500000
 C       0.885000000     0.207000000     0.230000000
 H       0.988300000     0.286500000     0.195800000
 C       0.619000000     0.257000000     0.246000000
 H       0.517500000     0.170900000     0.268600000
 H       0.617100000     0.331700000     0.309600000
 H       0.617100000     0.168300000     0.809600000
 H       0.517500000     0.329100000     0.768600000
 C       0.619000000     0.243000000     0.746000000
 H       0.988300000     0.213500000     0.695800000
 C       0.885000000     0.293000000     0.730000000
 H       0.729500000     0.160100000     0.831500000
 H       0.588800000     0.317000000     0.822200000
 C       0.741400000     0.263400000     0.802600000
 H       0.916200000     0.207000000     0.654600000
 C       0.762900000     0.262700000     0.673200000
Cl       1.011600000     0.353980000     0.873690000
Cl       0.779300000     0.449760000     0.612290000
Cl       0.489200000     0.162720000     0.608750000
 H       0.382900000     0.668300000     0.690400000
 H       0.482500000     0.829100000     0.731400000
 C       0.381000000     0.743000000     0.754000000
 H       0.011700000     0.713500000     0.804200000
 C       0.115000000     0.793000000     0.770000000
 H       0.270500000     0.660100000     0.668500000
 H       0.411200000     0.817000000     0.677800000
 C       0.258600000     0.763400000     0.697400000
 H       0.083800000     0.707000000     0.845400000
 C       0.237100000     0.762700000     0.826800000
Cl      -0.011600000     0.853980000     0.626310000
Cl       0.220700000     0.949760000     0.887710000
Cl       0.510800000     0.662720000     0.891250000
 H       0.382900000     0.831700000     0.190400000
 H       0.482500000     0.670900000     0.231400000
 C       0.381000000     0.757000000     0.254000000
 H       0.011700000     0.786500000     0.304200000
 C       0.115000000     0.707000000     0.270000000
 H       0.270500000     0.839900000     0.168500000
 H       0.411200000     0.683000000     0.177800000
 C       0.258600000     0.736600000     0.197400000
 H       0.083800000     0.793000000     0.345400000
 C       0.237100000     0.737300000     0.326800000
Cl      -0.011600000     0.646020000     0.126310000
Cl       0.220700000     0.550240000     0.387710000
Cl       0.510800000     0.837280000     0.391250000
K_POINTS {automatic}
 4 4 4  1 1 1 
