    &CONTROL 
calculation = 'scf'
prefix='112TCE_191GPa'
pseudo_dir = './'
outdir='./'
tstress=.true.
tprnfor = .true.
forc_conv_thr=1.0d-4
nstep=200
/
    &SYSTEM 
ibrav=0
celldm(1)=1.889726
nat=32
ntyp=8 
ecutwfc=36
/ 
    &ELECTRONS
mixing_beta=0.7
conv_thr =  1.0d-8
electron_maxstep=200
/
    &IONS
trust_radius_max=0.2
/
    &CELL
cell_dynamics='bfgs'
/
ATOMIC_SPECIES
  C1  12.0110  C1.UPF
  C2  12.0110  C2.UPF
  H11   1.0079  H11.UPF
  H21   1.0079  H21.UPF
  H22   1.0079  H22.UPF
  Cl1  35.4527  Cl1.UPF
  Cl2  35.4527  Cl2.UPF
  Cl3  35.4527  Cl3.UPF

CELL_PARAMETERS (alat) 
   4.9978000000    0.0000000000    0.0000000000
  -0.6825450180    8.1795718897    0.0000000000
   0.0000000000    0.0000000000   10.9820000000

ATOMIC_POSITIONS (crystal)
 C       0.756500000     0.244100000     0.167500000
 H       0.916000000     0.310000000     0.138100000
 C       0.756100000     0.255300000     0.302800000
 H       0.757600000     0.369300000     0.326300000
 H       0.919100000     0.213900000     0.333900000
Cl       0.470400000     0.325590000     0.101670000
Cl       0.778300000     0.041250000     0.114690000
Cl       0.473800000     0.144130000     0.371310000
Cl      -0.026200000     0.644130000     0.128690000
Cl       0.278300000     0.541250000     0.385310000
Cl      -0.029600000     0.825590000     0.398330000
 H       0.419100000     0.713900000     0.166100000
 H       0.257600000     0.869300000     0.173700000
 C       0.256100000     0.755300000     0.197200000
 H       0.416000000     0.810000000     0.361900000
 C       0.256500000     0.744100000     0.332500000
Cl       0.526200000     0.855870000     0.628690000
Cl       0.221700000     0.958750000     0.885310000
Cl       0.529600000     0.674410000     0.898330000
 H       0.080900000     0.786100000     0.666100000
 H       0.242400000     0.630700000     0.673700000
 C       0.243900000     0.744700000     0.697200000
 H       0.084000000     0.690000000     0.861900000
 C       0.243500000     0.755900000     0.832500000
Cl       1.026200000     0.355870000     0.871310000
Cl       0.721700000     0.458750000     0.614690000
Cl       1.029600000     0.174410000     0.601670000
 H       0.580900000     0.286100000     0.833900000
 H       0.742400000     0.130700000     0.826300000
 C       0.743900000     0.244700000     0.802800000
 H       0.584000000     0.190000000     0.638100000
 C       0.743500000     0.255900000     0.667500000
K_POINTS {automatic}
 4 4 4  1 1 1 
