    &CONTROL 
calculation = 'scf'
prefix='112TCE_120GPa'
pseudo_dir = './'
outdir='./'
tstress=.true.
tprnfor = .true.
forc_conv_thr=1.0d-4
nstep=200
/
    &SYSTEM 
ibrav=0
celldm(1)=1.889726
nat=32
ntyp=8 
ecutwfc=36
/ 
    &ELECTRONS
mixing_beta=0.7
conv_thr =  1.0d-8
electron_maxstep=200
/
    &IONS
trust_radius_max=0.2
/
    &CELL
cell_dynamics='bfgs'
/
ATOMIC_SPECIES
  C1  12.0110  C1.UPF
  C2  12.0110  C2.UPF
  H11   1.0079  H11.UPF
  H21   1.0079  H21.UPF
  H22   1.0079  H22.UPF
  Cl1  35.4527  Cl1.UPF
  Cl2  35.4527  Cl2.UPF
  Cl3  35.4527  Cl3.UPF

CELL_PARAMETERS (alat) 
   5.0448000000    0.0000000000    0.0000000000
  -0.6763200777    8.3276819801    0.0000000000
   0.0000000000    0.0000000000   11.0060000000

ATOMIC_POSITIONS (crystal)
 C       0.752000000     0.241000000     0.172000000
 H       0.910900000     0.304900000     0.143200000
 C       0.755000000     0.254700000     0.288000000
 H       0.756000000     0.367800000     0.308500000
 H       0.919700000     0.217200000     0.318800000
Cl       0.472600000     0.325000000     0.100900000
Cl       0.777700000     0.043900000     0.113700000
Cl       0.473000000     0.144500000     0.370200000
Cl      -0.027000000     0.644500000     0.129800000
Cl       0.277700000     0.543900000     0.386300000
Cl      -0.027400000     0.825000000     0.399100000
 H       0.419700000     0.717200000     0.181200000
 H       0.256000000     0.867800000     0.191500000
 C       0.255000000     0.754700000     0.212000000
 H       0.410900000     0.804900000     0.356800000
 C       0.252000000     0.741000000     0.328000000
Cl       0.527000000     0.855500000     0.629800000
Cl       0.222300000     0.956100000     0.886300000
Cl       0.527400000     0.675000000     0.899100000
 H       0.080300000     0.782800000     0.681200000
 H       0.244000000     0.632200000     0.691500000
 C       0.245000000     0.745300000     0.712000000
 H       0.089100000     0.695100000     0.856800000
 C       0.248000000     0.759000000     0.828000000
Cl       1.027000000     0.355500000     0.870200000
Cl       0.722300000     0.456100000     0.613700000
Cl       1.027400000     0.175000000     0.600900000
 H       0.580300000     0.282800000     0.818800000
 H       0.744000000     0.132200000     0.808500000
 C       0.745000000     0.245300000     0.788000000
 H       0.589100000     0.195100000     0.643200000
 C       0.748000000     0.259000000     0.672000000
K_POINTS {automatic}
 4 4 4  1 1 1 
