    &CONTROL 
calculation = 'scf'
prefix='model'
pseudo_dir = './'
outdir='./'
tstress=.true.
tprnfor = .true.
forc_conv_thr=1.0d-4
nstep=200
/
    &SYSTEM 
ibrav=0
celldm(1)=1.889726
nat=32
ntyp=8 
ecutwfc=36
/ 
    &ELECTRONS
mixing_beta=0.7
conv_thr =  1.0d-8
electron_maxstep=200
/
    &IONS
trust_radius_max=0.2
/
    &CELL
cell_dynamics='bfgs'
/
ATOMIC_SPECIES
  C1  12.0110  C1.UPF
  C2  12.0110  C2.UPF
  H11   1.0079  H11.UPF
  H21   1.0079  H21.UPF
  H22   1.0079  H22.UPF
  Cl1  35.4527  Cl1.UPF
  Cl2  35.4527  Cl2.UPF
  Cl3  35.4527  Cl3.UPF

CELL_PARAMETERS (alat) 
   5.2539000000    0.0000000000    0.0000000000
   0.0000000000    8.6980000000    0.0000000000
  -0.5748822080    0.0000000000   10.9328959771

ATOMIC_POSITIONS (crystal)
Cl       0.480800000     0.334400000     0.107700000
Cl       0.774700000     0.043500000     0.110700000
Cl       1.013700000     0.142150000     0.372900000
 C       0.751000000     0.236000000     0.168000000
 H       0.902000000     0.292600000     0.144000000
 C       0.753000000     0.236600000     0.304000000
 H       0.598100000     0.187900000     0.329500000
 H       0.752300000     0.342200000     0.332600000
 H       0.752300000     0.157800000     0.832600000
 H       0.598100000     0.312100000     0.829500000
 C       0.753000000     0.263400000     0.804000000
 H       0.902000000     0.207400000     0.644000000
 C       0.751000000     0.264000000     0.668000000
Cl       1.013700000     0.357850000     0.872900000
Cl       0.774700000     0.456500000     0.610700000
Cl       0.480800000     0.165600000     0.607700000
 H       0.247700000     0.657800000     0.667400000
 H       0.401900000     0.812100000     0.670500000
 C       0.247000000     0.763400000     0.696000000
 H       0.098000000     0.707400000     0.856000000
 C       0.249000000     0.764000000     0.832000000
Cl      -0.013700000     0.857850000     0.627100000
Cl       0.225300000     0.956500000     0.889300000
Cl       0.519200000     0.665600000     0.892300000
 H       0.247700000     0.842200000     0.167400000
 H       0.401900000     0.687900000     0.170500000
 C       0.247000000     0.736600000     0.196000000
 H       0.098000000     0.792600000     0.356000000
 C       0.249000000     0.736000000     0.332000000
Cl      -0.013700000     0.642150000     0.127100000
Cl       0.225300000     0.543500000     0.389300000
Cl       0.519200000     0.834400000     0.392300000
K_POINTS {automatic}
 4 4 4  1 1 1 
