    &CONTROL 
calculation = 'scf'
prefix='ab1477_structure_1_of_1'
pseudo_dir = './'
outdir='./'
tstress=.true.
tprnfor = .true.
forc_conv_thr=1.0d-4
nstep=200
/
    &SYSTEM 
ibrav=0
celldm(1)=1.889726
nat=12
ntyp=6 
ecutwfc=36
/ 
    &ELECTRONS
mixing_beta=0.7
conv_thr =  1.0d-8
electron_maxstep=200
/
    &IONS
trust_radius_max=0.2
/
    &CELL
cell_dynamics='bfgs'
/
ATOMIC_SPECIES
  C   12.0110  C.UPF
  Cl  35.4527  Cl.UPF
  H    1.0079  H.UPF

CELL_PARAMETERS (angstrom) 
  20.000000000    0.0000000000    0.0000000000
   0.000000000   20.0000000000    0.0000000000
   0.000000000    0.0000000000   20.0000000000

ATOMIC_POSITIONS (angstrom)
C     0.0059622049     -0.017544935     -1.379672969     
C     0.0031726949     1.2058493049     -0.712483170     
C     -0.002764355     1.2238318550     0.6811884799     
C     -0.005962194     0.0175449450     1.3796729699     
C     -0.003172685     -1.205849304     0.7124831699     
C     0.0027643649     -1.223831844     -0.681188480     
H    0.0106165749     2.1412607449     -1.268997289     
H    0.0007889249     2.174572695     1.2111169200     
H    -0.010616565     -2.141260745     1.2689972899     
H    -0.000788905     -2.174572684     -1.211116920     
Cl   0.0130702750     -0.040467135     -3.124553840     
Cl    -0.013070275     0.0404671350     3.1245538399 


K_POINTS {automatic}
 4 4 4  1 1 1 
