    &CONTROL 
calculation = 'scf'
prefix='model'
pseudo_dir = './'
outdir='./'
tstress=.true.
tprnfor = .true.
forc_conv_thr=1.0d-4
nstep=200
/
    &SYSTEM 
ibrav=0
celldm(1)=1.889726
nat=16
ntyp=4 
ecutwfc=36
/ 
    &ELECTRONS
mixing_beta=0.7
conv_thr =  1.0d-8
electron_maxstep=200
/
    &IONS
trust_radius_max=0.2
/
    &CELL
cell_dynamics='bfgs'
/
ATOMIC_SPECIES
  Cl3  35.4527  Cl3.UPF
  As  74.9216  As.UPF
  Cl1  35.4527  Cl1.UPF
  Cl2  35.4527  Cl2.UPF

CELL_PARAMETERS (alat) 
   9.4750000000    0.0000000000    0.0000000000
   0.0000000000   11.3310000000    0.0000000000
   0.0000000000    0.0000000000    4.2964000000

ATOMIC_POSITIONS (crystal)
As       0.301110000     0.287810000     0.487850000
Cl       0.296400000     0.123780000     0.232700000
Cl       0.134900000     0.378950000     0.240400000
Cl       0.477800000     0.367680000     0.248600000
Cl       0.977800000     0.132320000     0.751400000
Cl       0.634900000     0.121050000     0.759600000
Cl       0.796400000     0.376220000     0.767300000
As       0.801110000     0.212190000     0.512150000
Cl       0.522200000     0.867680000     0.251400000
Cl       0.865100000     0.878950000     0.259600000
Cl       0.703600000     0.623780000     0.267300000
As       0.698890000     0.787810000     0.012150000
Cl       0.022200000     0.632320000     0.748600000
Cl       0.365100000     0.621050000     0.740400000
Cl       0.203600000     0.876220000     0.732700000
As       0.198890000     0.712190000     0.987850000
K_POINTS {automatic}
 4 4 4  1 1 1 
