    &CONTROL
calculation  ='md'
restart_mode ='restart'
prefix       ='tempw-586-np64.dt150.36constr'
pseudo_dir   ='/global/cscratch1/sd/almno10/.data/PSEUDOPOTENTIALS'
outdir       ='/global/cscratch1/sd/almno10/paradichlorobenzene2/9.7.constraints/try_long/scratch/'
dt           = 160
tstress      = .false.
tprnfor      =.true.
!forc_conv_thr=1.0d-4
verbosity    = 'high'
nstep        = 1000
max_seconds  = 27000
/

&system
    ibrav=0
    celldm(1)=1.889726
    nat=24
    ntyp=3
    ecutwfc=80
    ecutrho=800
    spline_ps=.true.
    nosym=.true.
/

&electrons

    electron_maxstep  = 200
!   scf_must_converge = .true.
    conv_thr          = 1e-7
!   adaptive_thr      = 1.D-6
!   conv_thr_init     = 1.D-3

    mixing_mode       = 'plain'
    mixing_beta       = 0.7
!   mixing_ndim       = 8
!   mixing_fixed_ns   = 0
!
    diagonalization   = 'david'
!   ortho_para        = 0
    diago_thr_init    = 1.D-4
!   diago_cg_maxiter  = 2?
!   diago_david_ndim  = 4
!   diago_full_ac     = .false.
!
!
!   efield            = 0.D0
!   efield_cart(i)    = (0.D0, 0.D0, 0.D0) ! need lelfield=.true., K_POINTS automatic
!   startingpot       = 'atomic'
!   startingwfc       = 'atomic+random'
!   tqr               = .false.
!
/


&ions
    ion_dynamics      = 'verlet'
    ion_positions     = 'default'
!   pot_extrapolation = 'second_order'
!   wfc_extrapolation = 'second_order'
!   remove_rigid_rot  = .false.
!
!-------------------------------------------
!    !!!Molecular Dynamics only!!!         -
!-------------------------------------------
    ion_temperature   = 'initial'
    tempw             = 586
    tolp              = 100.D0
    delta_t           = 1.D0
    nraise            = 1
!    refold_pos
!------------------------------------------
!    !!!BFGS only!!!
!------------------------------------------
!   upscale           = 100.D0
!   bfgs_ndim         = 1
!   trust_radius_max  = 0.8D0
!   trust_radius_min  = 1.D-3
!   trust_radius_ini  = 0.5D0

!   w_1               = 0.01D0
!   w_2               = 0.5D0
!-------------------------------------------

/

&cell
!
    cell_dynamics     = 'bfgs'
!   press             = 0.D0
!   wmass             = !! fictitious cell mass
!                default:0.75*Tot_Mass/pi**2 for Parrinello-Rahman MD; 0.75*Tot_Mass/pi**2/Omega**(2/3) for Wentzcovitch MD
!   cell_factor       = 1.2D0
!   press_conv_thr    = 0.5D0
!   cell_dofree       = 'all'
/

ATOMIC_SPECIES
C    12.0110   C.pbe-n-kjpaw_psl.1.0.0.UPF
Cl   35.4527  Cl.pbe-n-kjpaw_psl.1.0.0.UPF
H    1.0079    H.pbe-kjpaw_psl.1.0.0.UPF

CELL_PARAMETERS (alat)
14.7620000000    0.0000000000    0.0000000000
   0.0000000000    5.8320000000    0.0000000000
  -1.5638756447    0.0000000000    3.7239513917

ATOMIC_POSITIONS (crystal)
Cl       1.165849197   0.174064714   0.481438830
C        1.073317173   0.355958225   0.491887686
C        1.098682759   0.560500378   0.684394547
H        1.175449892   0.606670489   0.828549575
C        1.024673423   0.705951945   0.692646288
H        1.043819093   0.865574631   0.843597763
H        0.456180907   0.365574631   0.156402237
C        0.475326577   0.205951945   0.307353712
H        0.324550108   0.106670489   0.171450425
C        0.401317241   0.060500378   0.315605453
C        0.426682827  -0.144041775   0.508112314
Cl       0.334150803  -0.325935286   0.518561170
H        0.956180907   0.134425369   0.156402237
C        0.975326577   0.294048055   0.307353712
H        0.824550108   0.393329511   0.171450425
C        0.901317241   0.439499622   0.315605453
C        0.926682827   0.644041775   0.508112314
Cl       0.834150803   0.825935286   0.518561170
H        0.543819093  -0.365574631   0.843597763
C        0.524673423  -0.205951945   0.692646288
H        0.675449892  -0.106670489   0.828549575
C        0.598682759  -0.060500378   0.684394547
C        0.573317173   0.144041775   0.491887686
Cl       0.665849197   0.325935286   0.481438830

K_POINTS automatic
2 4 4 1 1 1

CONSTRAINTS
40 1e-3
'distance' 3 4  ! C-H length
'distance' 5 6
'distance' 14 13
'distance' 16 15
'distance' 8 7
'distance' 10 9
'distance' 20 19
'distance' 22 21 
'planar_angle'  7   8  10        ! HCC
'planar_angle'  9  10   8        ! HCC
'planar_angle' 21  22  20        ! HCC 
'planar_angle' 19  20  22        ! HCC
'torsional_angle'  7   8  10  11 ! HCCC
'torsional_angle'  9  10   8  23 ! HCCC
'torsional_angle' 21  22  20  11 ! HCCC
'torsional_angle' 19  20  22  23 ! HCCC
'planar_angle'  6   5   3
'planar_angle'  4   3   5
'planar_angle' 13  14  16
'planar_angle' 15  16  14 
'torsional_angle' 6  5  3  2
'torsional_angle' 4  3  5  17
'torsional_angle' 13  14  16  17
'torsional_angle' 15  16  14  2
'distance' 5 3 ! C-C length
'distance' 3 2 
'distance' 2 14
'distance' 14 15
'distance' 15 17
'distance' 17 5
'distance' 8 10 
'distance' 10 11 
'distance' 11 20
'distance' 20 22
'distance' 22 23
'distance' 23 8
'planar_angle'  3  2 14     ! CCC-angles
'planar_angle' 16 17  5     ! just the ones @ chlorine
'planar_angle' 10 11 20
'planar_angle'  8 23 22

