    &CONTROL
calculation = 'scf'
prefix='hmx_0'
pseudo_dir = './'
outdir='./'
tstress=.true.
tprnfor = .true.
forc_conv_thr=1.0d-4
nstep=200
/
    &SYSTEM
ibrav=0
celldm(1)=1.889726
nat=56
ntyp=14
ecutwfc=36
/
    &ELECTRONS
mixing_beta=0.7
conv_thr =  1.0d-8
electron_maxstep=200
/
    &IONS
trust_radius_max=0.2
/
    &CELL
cell_dynamics='bfgs'
/
ATOMIC_SPECIES
  N3  14.0067  N3.UPF
  O1A  15.9994  O1A.UPF
  N3A  14.0067  N3A.UPF
  O1B  15.9994  O1B.UPF
  O3A  15.9994  O3A.UPF
  O3B  15.9994  O3B.UPF
  C2  12.0110  C2.UPF
  H2B   1.0079  H2B.UPF
  H2A   1.0079  H2A.UPF
  H4A   1.0079  H4A.UPF
  C4  12.0110  C4.UPF
  H4B   1.0079  H4B.UPF
  N1  14.0067  N1.UPF
  N1A  14.0067  N1A.UPF

CELL_PARAMETERS (alat)
   6.5289000000    0.0000000000    0.0000000000
   0.0000000000   10.9875000000    0.0000000000
  -1.6043292838    0.0000000000    7.1679536577

ATOMIC_POSITIONS (crystal)
 N      -0.018440000     0.622930000     0.461910000
 O       0.272140000     0.719880000     0.437660000
 N       0.140210000     0.702810000     0.532030000
 N      -0.142820000     0.525120000     0.705750000
 O      -0.271800000     0.428390000     0.922310000
 N      -0.301700000     0.501610000     0.793390000
 O       0.141020000     0.747080000     0.683200000
 C      -0.190100000     0.615360000     0.554060000
 H      -0.316700000     0.591800000     0.465100000
 H      -0.214000000     0.694300000     0.604700000
 O      -0.464000000     0.560710000     0.738420000
 C      -0.022400000     0.565610000     0.282240000
 H      -0.154200000     0.523100000     0.239100000
 H      -0.007000000     0.624900000     0.188600000
 H       0.493000000    -0.124900000    -0.311400000
 H       0.345800000    -0.023100000    -0.260900000
 C       0.477600000    -0.065610000    -0.217760000
 O       0.036000000    -0.060710000     0.238420000
 H       0.286000000    -0.194300000     0.104700000
 H       0.183300000    -0.091800000    -0.034900000
 C       0.309900000    -0.115360000     0.054060000
 O       0.641020000    -0.247080000     0.183200000
 N       0.198300000    -0.001610000     0.293390000
 O       0.228200000     0.071610000     0.422310000
 N       0.357180000    -0.025120000     0.205750000
 N       0.640210000    -0.202810000     0.032030000
 O       0.772140000    -0.219880000    -0.062340000
 N       0.481560000    -0.122930000    -0.038090000
 H       0.007000000     0.375100000     0.811400000
 H       0.154200000     0.476900000     0.760900000
 C       0.022400000     0.434390000     0.717760000
 O       0.464000000     0.439290000     0.261580000
 H       0.214000000     0.305700000     0.395300000
 H       0.316700000     0.408200000     0.534900000
 C       0.190100000     0.384640000     0.445940000
 O      -0.141020000     0.252920000     0.316800000
 N       0.301700000     0.498390000     0.206610000
 O       0.271800000     0.571610000     0.077690000
 N       0.142820000     0.474880000     0.294250000
 N      -0.140210000     0.297190000     0.467970000
 O      -0.272140000     0.280120000     0.562340000
 N       0.018440000     0.377070000     0.538090000
 H       0.507000000     0.124900000     0.311400000
 H       0.654200000     0.023100000     0.260900000
 C       0.522400000     0.065610000     0.217760000
 O       0.964000000     0.060710000    -0.238420000
 H       0.714000000     0.194300000    -0.104700000
 H       0.816700000     0.091800000     0.034900000
 C       0.690100000     0.115360000    -0.054060000
 O       0.358980000     0.247080000    -0.183200000
 N       0.801700000     0.001610000    -0.293390000
 O       0.771800000    -0.071610000    -0.422310000
 N       0.642820000     0.025120000    -0.205750000
 N       0.359790000     0.202810000    -0.032030000
 O       0.227860000     0.219880000     0.062340000
 N       0.518440000     0.122930000     0.038090000
K_POINTS {automatic}
 4 4 4  1 1 1
