&control
    calculation       = 'scf'
    restart_mode      = 'from_scratch'
    prefix            = 'ec120-scf'
    tstress           = .true.
    tprnfor           = .true.
    wf_collect        = .false.
    verbosity         = 'high'
    pseudo_dir        = './pseudo/'
    outdir            = './scratch/'
/

&system
    ibrav             = 6

    a                 =  9.558
    c                 =  8.981

    ecutwfc           =  120
    ecutrho           = 1200

    ntyp              =   6
    nat               =  70

    occupations       = 'smearing'
    smearing          = 'Fermi-Dirac'
    degauss           = 0.0036749326
/

&electrons
    conv_thr          = 1e-7
    mixing_beta       = 0.7
/
&ions
/
!&cell
!/

ATOMIC_SPECIES
H      1.0   H.pbe-kjpaw_psl.0.1.UPF
C      1.0   C.pbe-n-kjpaw_psl.0.1.UPF
N      1.0   N.pbe-n-kjpaw_psl.0.1.UPF
S      1.0   S.pbe-n-kjpaw_psl.0.1.UPF
Cl     1.0   Cl.pbe-n-kjpaw_psl.0.3.0.UPF
Ni     1.0   Ni.pbe-n-kjpaw_psl.0.1.UPF

ATOMIC_POSITIONS (crystal)
C        0.152287117   0.307634966   0.080274270
C       -0.152287117  -0.307634966   0.080274270
C        0.192324193   0.652269577   0.580268025
C       -0.307634966   0.152287117   0.080274270
C        0.307634966  -0.152287117   0.080274270
C        0.347730423   0.192324193   0.580268025
C        0.652269577   0.807675807   0.580268025
C        0.807675807   0.347730423   0.580268025
Cl       0.000000000   0.000000000  -0.321653404
Cl       0.000000000   0.000000000   0.311078781
Cl       0.500000000   0.500000000   0.178368836
Cl       0.500000000   0.500000000   0.811073149
H        0.025219067   0.669855767   0.441190679
H        0.026993690   0.790542953   0.587685454
H        0.169904616   0.474812316  -0.058820564
H       -0.169904616  -0.474812316  -0.058820564
H       -0.210945122   0.219429152  -0.235602235
H        0.210945122  -0.219429152  -0.235602235
H        0.219429152   0.210945122  -0.235602235
H       -0.219429152  -0.210945122  -0.235602235
H        0.155424201   0.845346346   0.237788572
H        0.154653654   0.155424201   0.237788572
H        0.209457047   0.026993690   0.587685454
H        0.290517121   0.472985162   0.087648006
H       -0.290517121  -0.472985162   0.087648006
H        0.345307218   0.344553388  -0.262166717
H       -0.345307218  -0.344553388  -0.262166717
H       -0.344553388   0.345307218  -0.262166717
H        0.344553388  -0.345307218  -0.262166717
H        0.280600035   0.289082006   0.264376772
H        0.289082006   0.719399965   0.264376772
H        0.330144233   0.025219067   0.441190679
H       -0.472985162   0.290517121   0.087648006
H        0.472985162  -0.290517121   0.087648006
H       -0.474812316   0.169904616  -0.058820564
H        0.474812316  -0.169904616  -0.058820564
H        0.669855767   0.974780933   0.441190679
H        0.710917994   0.280600035   0.264376772
H        0.719399965   0.710917994   0.264376772
H        0.790542953   0.973006310   0.587685454
H        0.845346346   0.844575799   0.237788572
H        0.844575799   0.154653654   0.237788572
H        0.973006310   0.209457047   0.587685454
H        0.974780933   0.330144233   0.441190679
N        0.066450895   0.700644043   0.539766028
N        0.200634869   0.433517884   0.039780140
N       -0.200634869  -0.433517884   0.039780140
N        0.199897605   0.247600260   0.203939795
N       -0.199897605  -0.247600260   0.203939795
N        0.252412647   0.699899323   0.703896661
N       -0.247600260   0.199897605   0.203939795
N        0.247600260  -0.199897605   0.203939795
N        0.300100677   0.252412647   0.703896661
N        0.299355957   0.066450895   0.539766028
N        0.433517884  -0.200634869   0.039780140
N       -0.433517884   0.200634869   0.039780140
N        0.700644043   0.933549105   0.539766028
N        0.699899323   0.747587353   0.703896661
N        0.747587353   0.300100677   0.703896661
N        0.933549105   0.299355957   0.539766028
Ni       0.000000000   0.000000000   0.013556150
Ni       0.500000000   0.500000000   0.513686870
S        0.027751872   0.228470726  -0.030794303
S       -0.027751872  -0.228470726  -0.030794303
S        0.271459910   0.527741586   0.469141821
S       -0.228470726   0.027751872  -0.030794303
S        0.228470726  -0.027751872  -0.030794303
S        0.472258414   0.271459910   0.469141821
S        0.527741586   0.728540090   0.469141821
S        0.728540090   0.472258414   0.469141821

K_POINTS automatic
  3*4 3*1


