    &CONTROL 
calculation = 'scf'
prefix='I'
pseudo_dir = './'
outdir='./'
tstress=.true.
tprnfor = .true.
forc_conv_thr=1.0d-4
nstep=200
/
    &SYSTEM 
ibrav=0
celldm(1)=1.889726
nat=168
ntyp=21 
ecutwfc=36
/ 
    &ELECTRONS
mixing_beta=0.7
conv_thr =  1.0d-8
electron_maxstep=200
/
    &IONS
trust_radius_max=0.2
/
    &CELL
cell_dynamics='bfgs'
/
ATOMIC_SPECIES
  O1  15.9994  O1.UPF
  O2  15.9994  O2.UPF
  O3  15.9994  O3.UPF
  O4  15.9994  O4.UPF
  O5  15.9994  O5.UPF
  O6  15.9994  O6.UPF
  N3  14.0067  N3.UPF
  N4  14.0067  N4.UPF
  N5  14.0067  N5.UPF
  N6  14.0067  N6.UPF
  C1  12.0110  C1.UPF
  C2  12.0110  C2.UPF
  C3  12.0110  C3.UPF
  H1B   1.0079  H1B.UPF
  H2A   1.0079  H2A.UPF
  H2B   1.0079  H2B.UPF
  H1A   1.0079  H1A.UPF
  H3B   1.0079  H3B.UPF
  H3A   1.0079  H3A.UPF
  N1  14.0067  N1.UPF
  N2  14.0067  N2.UPF

CELL_PARAMETERS (alat) 
  11.4195000000    0.0000000000    0.0000000000
   0.0000000000   10.5861000000    0.0000000000
   0.0000000000    0.0000000000   13.1401000000

ATOMIC_POSITIONS (crystal)
 O       0.964830000     0.366160000     1.026940000
 O       0.850970000     0.245650000     1.116790000
 O       0.818460000    -0.032570000     1.072250000
 O       0.932940000    -0.103980000     0.953440000
 O       1.067790000     0.065320000     0.732820000
 O       1.093210000     0.263710000     0.770720000
 N       0.818060000     0.264890000     0.949110000
 N       0.796570000     0.040400000     0.913620000
 N       0.934670000     0.164300000     0.825590000
 N       0.884480000     0.291800000     1.036870000
 N       0.855270000    -0.035130000     0.985300000
 N       1.036990000     0.164740000     0.772530000
 C       0.740330000     0.155000000     0.952810000
 C       0.878080000     0.283630000     0.852610000
 C       0.855870000     0.056330000     0.816210000
 H       0.677100000     0.170900000     0.909700000
 H       0.714500000     0.140900000     1.018500000
 H       0.819200000     0.303000000     0.802300000
 H       0.932900000     0.348800000     0.858500000
 H       0.797200000     0.076000000     0.766900000
 H       0.898800000    -0.015500000     0.800500000
 H       0.898800000     0.515500000     0.300500000
 H       0.797200000     0.424000000     0.266900000
 H       0.932900000     0.151200000     0.358500000
 H       0.819200000     0.197000000     0.302300000
 H       0.714500000     0.359100000     0.518500000
 H       0.677100000     0.329100000     0.409700000
 C       0.855870000     0.443670000     0.316210000
 C       0.878080000     0.216370000     0.352610000
 C       0.740330000     0.345000000     0.452810000
 N       1.036990000     0.335260000     0.272530000
 N       0.855270000     0.535130000     0.485300000
 N       0.884480000     0.208200000     0.536870000
 N       0.934670000     0.335700000     0.325590000
 N       0.796570000     0.459600000     0.413620000
 N       0.818060000     0.235110000     0.449110000
 O       1.093210000     0.236290000     0.270720000
 O       1.067790000     0.434680000     0.232820000
 O       0.932940000     0.603980000     0.453440000
 O       0.818460000     0.532570000     0.572250000
 O       0.850970000     0.254350000     0.616790000
 O       0.964830000     0.133840000     0.526940000
 H       0.601200000     0.484500000     0.800500000
 H       0.702800000     0.576000000     0.766900000
 H       0.567100000     0.848800000     0.858500000
 H       0.680800000     0.803000000     0.802300000
 H       0.785500000     0.640900000     1.018500000
 H       0.822900000     0.670900000     0.909700000
 C       0.644130000     0.556330000     0.816210000
 C       0.621920000     0.783630000     0.852610000
 C       0.759670000     0.655000000     0.952810000
 N       0.463010000     0.664740000     0.772530000
 N       0.644730000     0.464870000     0.985300000
 N       0.615520000     0.791800000     1.036870000
 N       0.565330000     0.664300000     0.825590000
 N       0.703430000     0.540400000     0.913620000
 N       0.681940000     0.764890000     0.949110000
 O       0.406790000     0.763710000     0.770720000
 O       0.432210000     0.565320000     0.732820000
 O       0.567060000     0.396020000     0.953440000
 O       0.681540000     0.467430000     1.072250000
 O       0.649030000     0.745650000     1.116790000
 O       0.535170000     0.866160000     1.026940000
 H       0.398800000    -0.015500000     0.699500000
 H       0.297200000     0.076000000     0.733100000
 H       0.432900000     0.348800000     0.641500000
 H       0.319200000     0.303000000     0.697700000
 H       0.214500000     0.140900000     0.481500000
 H       0.177100000     0.170900000     0.590300000
 C       0.355870000     0.056330000     0.683790000
 C       0.378080000     0.283630000     0.647390000
 C       0.240330000     0.155000000     0.547190000
 N       0.536990000     0.164740000     0.727470000
 N       0.355270000    -0.035130000     0.514700000
 N       0.384480000     0.291800000     0.463130000
 N       0.434670000     0.164300000     0.674410000
 N       0.296570000     0.040400000     0.586380000
 N       0.318060000     0.264890000     0.550890000
 O       0.593210000     0.263710000     0.729280000
 O       0.567790000     0.065320000     0.767180000
 O       0.432940000    -0.103980000     0.546560000
 O       0.318460000    -0.032570000     0.427750000
 O       0.350970000     0.245650000     0.383210000
 O       0.464830000     0.366160000     0.473060000
 H       0.101200000     1.015500000     0.199500000
 H       0.202800000     0.924000000     0.233100000
 H       0.067100000     0.651200000     0.141500000
 H       0.180800000     0.697000000     0.197700000
 H       0.285500000     0.859100000    -0.018500000
 H       0.322900000     0.829100000     0.090300000
 C       0.144130000     0.943670000     0.183790000
 C       0.121920000     0.716370000     0.147390000
 C       0.259670000     0.845000000     0.047190000
 N      -0.036990000     0.835260000     0.227470000
 N       0.144730000     1.035130000     0.014700000
 N       0.115520000     0.708200000    -0.036870000
 N       0.065330000     0.835700000     0.174410000
 N       0.203430000     0.959600000     0.086380000
 N       0.181940000     0.735110000     0.050890000
 O      -0.093210000     0.736290000     0.229280000
 O      -0.067790000     0.934680000     0.267180000
 O       0.067060000     1.103980000     0.046560000
 O       0.181540000     1.032570000    -0.072250000
 O       0.149030000     0.754350000    -0.116790000
 O       0.035170000     0.633840000    -0.026940000
 H       0.101200000     0.484500000     0.699500000
 H       0.202800000     0.576000000     0.733100000
 H       0.067100000     0.848800000     0.641500000
 H       0.180800000     0.803000000     0.697700000
 H       0.285500000     0.640900000     0.481500000
 H       0.322900000     0.670900000     0.590300000
 C       0.144130000     0.556330000     0.683790000
 C       0.121920000     0.783630000     0.647390000
 C       0.259670000     0.655000000     0.547190000
 N      -0.036990000     0.664740000     0.727470000
 N       0.144730000     0.464870000     0.514700000
 N       0.115520000     0.791800000     0.463130000
 N       0.065330000     0.664300000     0.674410000
 N       0.203430000     0.540400000     0.586380000
 N       0.181940000     0.764890000     0.550890000
 O      -0.093210000     0.763710000     0.729280000
 O      -0.067790000     0.565320000     0.767180000
 O       0.067060000     0.396020000     0.546560000
 O       0.181540000     0.467430000     0.427750000
 O       0.149030000     0.745650000     0.383210000
 O       0.035170000     0.866160000     0.473060000
 H       0.398800000     0.515500000     0.199500000
 H       0.297200000     0.424000000     0.233100000
 H       0.432900000     0.151200000     0.141500000
 H       0.319200000     0.197000000     0.197700000
 H       0.214500000     0.359100000    -0.018500000
 H       0.177100000     0.329100000     0.090300000
 C       0.355870000     0.443670000     0.183790000
 C       0.378080000     0.216370000     0.147390000
 C       0.240330000     0.345000000     0.047190000
 N       0.536990000     0.335260000     0.227470000
 N       0.355270000     0.535130000     0.014700000
 N       0.384480000     0.208200000    -0.036870000
 N       0.434670000     0.335700000     0.174410000
 N       0.296570000     0.459600000     0.086380000
 N       0.318060000     0.235110000     0.050890000
 O       0.593210000     0.236290000     0.229280000
 O       0.567790000     0.434680000     0.267180000
 O       0.432940000     0.603980000     0.046560000
 O       0.318460000     0.532570000    -0.072250000
 O       0.350970000     0.254350000    -0.116790000
 O       0.464830000     0.133840000    -0.026940000
 H       0.601200000     1.015500000     0.300500000
 H       0.702800000     0.924000000     0.266900000
 H       0.567100000     0.651200000     0.358500000
 H       0.680800000     0.697000000     0.302300000
 H       0.785500000     0.859100000     0.518500000
 H       0.822900000     0.829100000     0.409700000
 C       0.644130000     0.943670000     0.316210000
 C       0.621920000     0.716370000     0.352610000
 C       0.759670000     0.845000000     0.452810000
 N       0.463010000     0.835260000     0.272530000
 N       0.644730000     1.035130000     0.485300000
 N       0.615520000     0.708200000     0.536870000
 N       0.565330000     0.835700000     0.325590000
 N       0.703430000     0.959600000     0.413620000
 N       0.681940000     0.735110000     0.449110000
 O       0.406790000     0.736290000     0.270720000
 O       0.432210000     0.934680000     0.232820000
 O       0.567060000     1.103980000     0.453440000
 O       0.681540000     1.032570000     0.572250000
 O       0.649030000     0.754350000     0.616790000
 O       0.535170000     0.633840000     0.526940000
K_POINTS {automatic}
 4 4 4  1 1 1 
