    &CONTROL 
calculation = 'scf'
prefix='1'
pseudo_dir = './'
outdir='./'
tstress=.true.
tprnfor = .true.
forc_conv_thr=1.0d-4
nstep=200
/
    &SYSTEM 
ibrav=0
celldm(1)=1.889726
nat=84
ntyp=21 
ecutwfc=36
/ 
    &ELECTRONS
mixing_beta=0.7
conv_thr =  1.0d-8
electron_maxstep=200
/
    &IONS
trust_radius_max=0.2
/
    &CELL
cell_dynamics='bfgs'
/
ATOMIC_SPECIES
  N3  14.0067  N3.UPF
  N4  14.0067  N4.UPF
  N5  14.0067  N5.UPF
  N6  14.0067  N6.UPF
  O2  15.9994  O2.UPF
  O3  15.9994  O3.UPF
  O1  15.9994  O1.UPF
  C1  12.0110  C1.UPF
  C2  12.0110  C2.UPF
  C3  12.0110  C3.UPF
  O5  15.9994  O5.UPF
  O6  15.9994  O6.UPF
  O4  15.9994  O4.UPF
  H1   1.0079  H1.UPF
  H2   1.0079  H2.UPF
  H3   1.0079  H3.UPF
  H4   1.0079  H4.UPF
  H5   1.0079  H5.UPF
  H6   1.0079  H6.UPF
  N1  14.0067  N1.UPF
  N2  14.0067  N2.UPF

CELL_PARAMETERS (alat) 
   7.0324000000    0.0000000000    0.0000000000
   0.0000000000   10.5300000000    0.0000000000
   0.0000000000    0.0000000000    8.7909000000

ATOMIC_POSITIONS (crystal)
 N      -0.079500000     0.848400000     0.536900000
 N      -0.024200000     0.619400000     0.531300000
 N       0.211100000     0.758700000     0.640800000
 N      -0.041600000     0.883500000     0.389900000
 N       0.031400000     0.583500000     0.388400000
 N       0.363300000     0.774800000     0.541400000
 C      -0.162900000     0.721700000     0.544700000
 C       0.128700000     0.631300000     0.643200000
 C       0.073200000     0.862100000     0.648800000
 O       0.109700000     0.932500000     0.364800000
 O      -0.167500000     0.871900000     0.298200000
 O       0.150600000     0.501600000     0.381900000
 O      -0.045500000     0.627900000     0.278300000
 O       0.416700000     0.684500000     0.469800000
 O       0.431800000     0.879300000     0.535000000
 H      -0.232400000     0.710000000     0.641800000
 H      -0.254500000     0.712700000     0.462000000
 H       0.078800000     0.610600000     0.744000000
 H       0.228100000     0.571900000     0.616800000
 H       0.142900000     0.943600000     0.622400000
 H       0.026500000     0.872900000     0.749900000
 H       0.973500000     0.127100000     0.249900000
 H       0.857100000     0.056400000     0.122400000
 H       0.771900000     0.428100000     0.116800000
 H       0.921200000     0.389400000     0.244000000
 H       1.254500000     0.287300000    -0.038000000
 H       1.232400000     0.290000000     0.141800000
 O       0.568200000     0.120700000     0.035000000
 O       0.583300000     0.315500000    -0.030200000
 O       1.045500000     0.372100000    -0.221700000
 O       0.849400000     0.498400000    -0.118100000
 O       1.167500000     0.128100000    -0.201800000
 O       0.890300000     0.067500000    -0.135200000
 C       0.926800000     0.137900000     0.148800000
 C       0.871300000     0.368700000     0.143200000
 C       1.162900000     0.278300000     0.044700000
 N       0.636700000     0.225200000     0.041400000
 N       0.968600000     0.416500000    -0.111600000
 N       1.041600000     0.116500000    -0.110100000
 N       0.788900000     0.241300000     0.140800000
 N       1.024200000     0.380600000     0.031300000
 N       1.079500000     0.151600000     0.036900000
 H       0.526500000     0.127100000     0.749900000
 H       0.642900000     0.056400000     0.622400000
 H       0.728100000     0.428100000     0.616800000
 H       0.578800000     0.389400000     0.744000000
 H       0.245500000     0.287300000     0.462000000
 H       0.267600000     0.290000000     0.641800000
 O       0.931800000     0.120700000     0.535000000
 O       0.916700000     0.315500000     0.469800000
 O       0.454500000     0.372100000     0.278300000
 O       0.650600000     0.498400000     0.381900000
 O       0.332500000     0.128100000     0.298200000
 O       0.609700000     0.067500000     0.364800000
 C       0.573200000     0.137900000     0.648800000
 C       0.628700000     0.368700000     0.643200000
 C       0.337100000     0.278300000     0.544700000
 N       0.863300000     0.225200000     0.541400000
 N       0.531400000     0.416500000     0.388400000
 N       0.458400000     0.116500000     0.389900000
 N       0.711100000     0.241300000     0.640800000
 N       0.475800000     0.380600000     0.531300000
 N       0.420500000     0.151600000     0.536900000
 H       0.473500000     0.872900000     0.249900000
 H       0.357100000     0.943600000     0.122400000
 H       0.271900000     0.571900000     0.116800000
 H       0.421200000     0.610600000     0.244000000
 H       0.754500000     0.712700000    -0.038000000
 H       0.732400000     0.710000000     0.141800000
 O       0.068200000     0.879300000     0.035000000
 O       0.083300000     0.684500000    -0.030200000
 O       0.545500000     0.627900000    -0.221700000
 O       0.349400000     0.501600000    -0.118100000
 O       0.667500000     0.871900000    -0.201800000
 O       0.390300000     0.932500000    -0.135200000
 C       0.426800000     0.862100000     0.148800000
 C       0.371300000     0.631300000     0.143200000
 C       0.662900000     0.721700000     0.044700000
 N       0.136700000     0.774800000     0.041400000
 N       0.468600000     0.583500000    -0.111600000
 N       0.541600000     0.883500000    -0.110100000
 N       0.288900000     0.758700000     0.140800000
 N       0.524200000     0.619400000     0.031300000
 N       0.579500000     0.848400000     0.036900000
K_POINTS {automatic}
 4 4 4  1 1 1 
