    &CONTROL 
calculation = 'scf'
prefix='ix090'
pseudo_dir = './'
outdir='./'
tstress=.true.
tprnfor = .true.
forc_conv_thr=1.0d-4
nstep=200
/
    &SYSTEM 
ibrav=0
celldm(1)=1.889726
nat=168
ntyp=21 
ecutwfc=36
/ 
    &ELECTRONS
mixing_beta=0.7
conv_thr =  1.0d-8
electron_maxstep=200
/
    &IONS
trust_radius_max=0.2
/
    &CELL
cell_dynamics='bfgs'
/
ATOMIC_SPECIES
  O1  15.9994  O1.UPF
  O2  15.9994  O2.UPF
  O3  15.9994  O3.UPF
  O4  15.9994  O4.UPF
  O5  15.9994  O5.UPF
  O6  15.9994  O6.UPF
  N3  14.0067  N3.UPF
  N4  14.0067  N4.UPF
  N5  14.0067  N5.UPF
  N6  14.0067  N6.UPF
  C1  12.0110  C1.UPF
  C2  12.0110  C2.UPF
  H1A   1.0079  H1A.UPF
  H1B   1.0079  H1B.UPF
  H2A   1.0079  H2A.UPF
  H2B   1.0079  H2B.UPF
  H3A   1.0079  H3A.UPF
  H3B   1.0079  H3B.UPF
  C3  12.0110  C3.UPF
  N1  14.0067  N1.UPF
  N2  14.0067  N2.UPF

CELL_PARAMETERS (alat) 
  11.4545000000    0.0000000000    0.0000000000
   0.0000000000   10.6169000000    0.0000000000
   0.0000000000    0.0000000000   13.1773000000

ATOMIC_POSITIONS (crystal)
 O       0.433090000    -0.104130000     0.453380000
 O       0.318570000    -0.032740000     0.572420000
 O       0.350980000     0.245610000     0.616760000
 O       0.464600000     0.366400000     0.527010000
 O       0.593260000     0.263860000     0.270760000
 O       0.567770000     0.065250000     0.232750000
 N       0.296600000     0.040200000     0.413770000
 N       0.317980000     0.264910000     0.449190000
 N       0.434570000     0.164360000     0.325690000
 N       0.355400000    -0.035270000     0.485250000
 N       0.384300000     0.291750000     0.536910000
 N       0.537030000     0.164840000     0.272540000
 C       0.240360000     0.154910000     0.452920000
 H       0.169500000     0.172600000     0.412400000
 H       0.215800000     0.140400000     0.524000000
 C       0.377970000     0.283700000     0.352530000
 H       0.437000000     0.351400000     0.359000000
 H       0.321400000     0.308200000     0.299300000
 C       0.356140000     0.056270000     0.316420000
 H       0.401200000    -0.020500000     0.299500000
 H       0.298400000     0.071300000     0.261800000
 H       0.298400000     0.428700000     0.761800000
 H       0.401200000     0.520500000     0.799500000
 C       0.356140000     0.443730000     0.816420000
 H       0.321400000     0.191800000     0.799300000
 H       0.437000000     0.148600000     0.859000000
 C       0.377970000     0.216300000     0.852530000
 H       0.215800000     0.359600000     1.024000000
 H       0.169500000     0.327400000     0.912400000
 C       0.240360000     0.345090000     0.952920000
 N       0.537030000     0.335160000     0.772540000
 N       0.384300000     0.208250000     1.036910000
 N       0.355400000     0.535270000     0.985250000
 N       0.434570000     0.335640000     0.825690000
 N       0.317980000     0.235090000     0.949190000
 N       0.296600000     0.459800000     0.913770000
 O       0.567770000     0.434750000     0.732750000
 O       0.593260000     0.236140000     0.770760000
 O       0.464600000     0.133600000     1.027010000
 O       0.350980000     0.254390000     1.116760000
 O       0.318570000     0.532740000     1.072420000
 O       0.433090000     0.604130000     0.953380000
 H       0.201600000     0.571300000     0.261800000
 H       0.098800000     0.479500000     0.299500000
 C       0.143860000     0.556270000     0.316420000
 H       0.178600000     0.808200000     0.299300000
 H       0.063000000     0.851400000     0.359000000
 C       0.122030000     0.783700000     0.352530000
 H       0.284200000     0.640400000     0.524000000
 H       0.330500000     0.672600000     0.412400000
 C       0.259640000     0.654910000     0.452920000
 N      -0.037030000     0.664840000     0.272540000
 N       0.115700000     0.791750000     0.536910000
 N       0.144600000     0.464730000     0.485250000
 N       0.065430000     0.664360000     0.325690000
 N       0.182020000     0.764910000     0.449190000
 N       0.203400000     0.540200000     0.413770000
 O      -0.067770000     0.565250000     0.232750000
 O      -0.093260000     0.763860000     0.270760000
 O       0.035400000     0.866400000     0.527010000
 O       0.149020000     0.745610000     0.616760000
 O       0.181430000     0.467260000     0.572420000
 O       0.066910000     0.395870000     0.453380000
 H       0.798400000     0.071300000     0.238200000
 H       0.901200000    -0.020500000     0.200500000
 C       0.856140000     0.056270000     0.183580000
 H       0.821400000     0.308200000     0.200700000
 H       0.937000000     0.351400000     0.141000000
 C       0.877970000     0.283700000     0.147470000
 H       0.715800000     0.140400000    -0.024000000
 H       0.669500000     0.172600000     0.087600000
 C       0.740360000     0.154910000     0.047080000
 N       1.037030000     0.164840000     0.227460000
 N       0.884300000     0.291750000    -0.036910000
 N       0.855400000    -0.035270000     0.014750000
 N       0.934570000     0.164360000     0.174310000
 N       0.817980000     0.264910000     0.050810000
 N       0.796600000     0.040200000     0.086230000
 O       1.067770000     0.065250000     0.267250000
 O       1.093260000     0.263860000     0.229240000
 O       0.964600000     0.366400000    -0.027010000
 O       0.850980000     0.245610000    -0.116760000
 O       0.818570000    -0.032740000    -0.072420000
 O       0.933090000    -0.104130000     0.046620000
 H       0.701600000     0.928700000     0.738200000
 H       0.598800000     1.020500000     0.700500000
 C       0.643860000     0.943730000     0.683580000
 H       0.678600000     0.691800000     0.700700000
 H       0.563000000     0.648600000     0.641000000
 C       0.622030000     0.716300000     0.647470000
 H       0.784200000     0.859600000     0.476000000
 H       0.830500000     0.827400000     0.587600000
 C       0.759640000     0.845090000     0.547080000
 N       0.462970000     0.835160000     0.727460000
 N       0.615700000     0.708250000     0.463090000
 N       0.644600000     1.035270000     0.514750000
 N       0.565430000     0.835640000     0.674310000
 N       0.682020000     0.735090000     0.550810000
 N       0.703400000     0.959800000     0.586230000
 O       0.432230000     0.934750000     0.767250000
 O       0.406740000     0.736140000     0.729240000
 O       0.535400000     0.633600000     0.472990000
 O       0.649020000     0.754390000     0.383240000
 O       0.681430000     1.032740000     0.427580000
 O       0.566910000     1.104130000     0.546620000
 H       0.701600000     0.571300000     0.238200000
 H       0.598800000     0.479500000     0.200500000
 C       0.643860000     0.556270000     0.183580000
 H       0.678600000     0.808200000     0.200700000
 H       0.563000000     0.851400000     0.141000000
 C       0.622030000     0.783700000     0.147470000
 H       0.784200000     0.640400000    -0.024000000
 H       0.830500000     0.672600000     0.087600000
 C       0.759640000     0.654910000     0.047080000
 N       0.462970000     0.664840000     0.227460000
 N       0.615700000     0.791750000    -0.036910000
 N       0.644600000     0.464730000     0.014750000
 N       0.565430000     0.664360000     0.174310000
 N       0.682020000     0.764910000     0.050810000
 N       0.703400000     0.540200000     0.086230000
 O       0.432230000     0.565250000     0.267250000
 O       0.406740000     0.763860000     0.229240000
 O       0.535400000     0.866400000    -0.027010000
 O       0.649020000     0.745610000    -0.116760000
 O       0.681430000     0.467260000    -0.072420000
 O       0.566910000     0.395870000     0.046620000
 H       0.798400000     0.428700000     0.738200000
 H       0.901200000     0.520500000     0.700500000
 C       0.856140000     0.443730000     0.683580000
 H       0.821400000     0.191800000     0.700700000
 H       0.937000000     0.148600000     0.641000000
 C       0.877970000     0.216300000     0.647470000
 H       0.715800000     0.359600000     0.476000000
 H       0.669500000     0.327400000     0.587600000
 C       0.740360000     0.345090000     0.547080000
 N       1.037030000     0.335160000     0.727460000
 N       0.884300000     0.208250000     0.463090000
 N       0.855400000     0.535270000     0.514750000
 N       0.934570000     0.335640000     0.674310000
 N       0.817980000     0.235090000     0.550810000
 N       0.796600000     0.459800000     0.586230000
 O       1.067770000     0.434750000     0.767250000
 O       1.093260000     0.236140000     0.729240000
 O       0.964600000     0.133600000     0.472990000
 O       0.850980000     0.254390000     0.383240000
 O       0.818570000     0.532740000     0.427580000
 O       0.933090000     0.604130000     0.546620000
 H       0.201600000     0.928700000     0.761800000
 H       0.098800000     1.020500000     0.799500000
 C       0.143860000     0.943730000     0.816420000
 H       0.178600000     0.691800000     0.799300000
 H       0.063000000     0.648600000     0.859000000
 C       0.122030000     0.716300000     0.852530000
 H       0.284200000     0.859600000     1.024000000
 H       0.330500000     0.827400000     0.912400000
 C       0.259640000     0.845090000     0.952920000
 N      -0.037030000     0.835160000     0.772540000
 N       0.115700000     0.708250000     1.036910000
 N       0.144600000     1.035270000     0.985250000
 N       0.065430000     0.835640000     0.825690000
 N       0.182020000     0.735090000     0.949190000
 N       0.203400000     0.959800000     0.913770000
 O      -0.067770000     0.934750000     0.732750000
 O      -0.093260000     0.736140000     0.770760000
 O       0.035400000     0.633600000     1.027010000
 O       0.149020000     0.754390000     1.116760000
 O       0.181430000     1.032740000     1.072420000
 O       0.066910000     1.104130000     0.953380000
K_POINTS {automatic}
 4 4 4  1 1 1 
