    &CONTROL 
calculation = 'scf'
prefix='ix091'
pseudo_dir = './'
outdir='./'
tstress=.true.
tprnfor = .true.
forc_conv_thr=1.0d-4
nstep=200
/
    &SYSTEM 
ibrav=0
celldm(1)=1.889726
nat=168
ntyp=21 
ecutwfc=36
/ 
    &ELECTRONS
mixing_beta=0.7
conv_thr =  1.0d-8
electron_maxstep=200
/
    &IONS
trust_radius_max=0.2
/
    &CELL
cell_dynamics='bfgs'
/
ATOMIC_SPECIES
  O1  15.9994  O1.UPF
  O2  15.9994  O2.UPF
  O3  15.9994  O3.UPF
  O4  15.9994  O4.UPF
  O5  15.9994  O5.UPF
  O6  15.9994  O6.UPF
  N3  14.0067  N3.UPF
  N4  14.0067  N4.UPF
  N5  14.0067  N5.UPF
  N6  14.0067  N6.UPF
  C1  12.0110  C1.UPF
  H3A   1.0079  H3A.UPF
  H1A   1.0079  H1A.UPF
  H1B   1.0079  H1B.UPF
  H3B   1.0079  H3B.UPF
  C3  12.0110  C3.UPF
  C2  12.0110  C2.UPF
  H2B   1.0079  H2B.UPF
  H2A   1.0079  H2A.UPF
  N1  14.0067  N1.UPF
  N2  14.0067  N2.UPF

CELL_PARAMETERS (alat) 
  11.5100000000    0.0000000000    0.0000000000
   0.0000000000   10.6532000000    0.0000000000
   0.0000000000    0.0000000000   13.1969000000

ATOMIC_POSITIONS (crystal)
 O       0.466240000     0.364470000     0.525870000
 O       0.351800000     0.246350000     0.615420000
 O       0.317440000    -0.030700000     0.571300000
 O       0.431430000    -0.102630000     0.453430000
 O       0.567980000     0.065960000     0.233740000
 O       0.593160000     0.263390000     0.271310000
 N       0.319040000     0.265720000     0.448280000
 N       0.297280000     0.042400000     0.413200000
 N       0.434850000     0.165300000     0.325120000
 N       0.385470000     0.291700000     0.535870000
 N       0.354480000    -0.033290000     0.484690000
 N       0.537120000     0.165120000     0.272960000
 C       0.241750000     0.156570000     0.451760000
 H       0.171400000     0.174400000     0.411000000
 H       0.216900000     0.142300000     0.522600000
 C       0.356710000     0.057600000     0.316210000
 H       0.299400000     0.072200000     0.261500000
 H       0.401500000    -0.019100000     0.299800000
 C       0.378900000     0.284000000     0.352000000
 H       0.437800000     0.351200000     0.358500000
 H       0.322700000     0.308600000     0.298800000
 H       0.322700000     0.191400000     0.798800000
 H       0.437800000     0.148800000     0.858500000
 C       0.378900000     0.216000000     0.852000000
 H       0.401500000     0.519100000     0.799800000
 H       0.299400000     0.427800000     0.761500000
 C       0.356710000     0.442400000     0.816210000
 H       0.216900000     0.357700000     1.022600000
 H       0.171400000     0.325600000     0.911000000
 C       0.241750000     0.343430000     0.951760000
 N       0.537120000     0.334880000     0.772960000
 N       0.354480000     0.533290000     0.984690000
 N       0.385470000     0.208300000     1.035870000
 N       0.434850000     0.334700000     0.825120000
 N       0.297280000     0.457600000     0.913200000
 N       0.319040000     0.234280000     0.948280000
 O       0.593160000     0.236610000     0.771310000
 O       0.567980000     0.434040000     0.733740000
 O       0.431430000     0.602630000     0.953430000
 O       0.317440000     0.530700000     1.071300000
 O       0.351800000     0.253650000     1.115420000
 O       0.466240000     0.135530000     1.025870000
 H       0.177300000     0.808600000     0.298800000
 H       0.062200000     0.851200000     0.358500000
 C       0.121100000     0.784000000     0.352000000
 H       0.098500000     0.480900000     0.299800000
 H       0.200600000     0.572200000     0.261500000
 C       0.143290000     0.557600000     0.316210000
 H       0.283100000     0.642300000     0.522600000
 H       0.328600000     0.674400000     0.411000000
 C       0.258250000     0.656570000     0.451760000
 N      -0.037120000     0.665120000     0.272960000
 N       0.145520000     0.466710000     0.484690000
 N       0.114530000     0.791700000     0.535870000
 N       0.065150000     0.665300000     0.325120000
 N       0.202720000     0.542400000     0.413200000
 N       0.180960000     0.765720000     0.448280000
 O      -0.093160000     0.763390000     0.271310000
 O      -0.067980000     0.565960000     0.233740000
 O       0.068570000     0.397370000     0.453430000
 O       0.182560000     0.469300000     0.571300000
 O       0.148200000     0.746350000     0.615420000
 O       0.033760000     0.864470000     0.525870000
 H       0.822700000     0.308600000     0.201200000
 H       0.937800000     0.351200000     0.141500000
 C       0.878900000     0.284000000     0.148000000
 H       0.901500000    -0.019100000     0.200200000
 H       0.799400000     0.072200000     0.238500000
 C       0.856710000     0.057600000     0.183790000
 H       0.716900000     0.142300000    -0.022600000
 H       0.671400000     0.174400000     0.089000000
 C       0.741750000     0.156570000     0.048240000
 N       1.037120000     0.165120000     0.227040000
 N       0.854480000    -0.033290000     0.015310000
 N       0.885470000     0.291700000    -0.035870000
 N       0.934850000     0.165300000     0.174880000
 N       0.797280000     0.042400000     0.086800000
 N       0.819040000     0.265720000     0.051720000
 O       1.093160000     0.263390000     0.228690000
 O       1.067980000     0.065960000     0.266260000
 O       0.931430000    -0.102630000     0.046570000
 O       0.817440000    -0.030700000    -0.071300000
 O       0.851800000     0.246350000    -0.115420000
 O       0.966240000     0.364470000    -0.025870000
 H       0.677300000     0.691400000     0.701200000
 H       0.562200000     0.648800000     0.641500000
 C       0.621100000     0.716000000     0.648000000
 H       0.598500000     1.019100000     0.700200000
 H       0.700600000     0.927800000     0.738500000
 C       0.643290000     0.942400000     0.683790000
 H       0.783100000     0.857700000     0.477400000
 H       0.828600000     0.825600000     0.589000000
 C       0.758250000     0.843430000     0.548240000
 N       0.462880000     0.834880000     0.727040000
 N       0.645520000     1.033290000     0.515310000
 N       0.614530000     0.708300000     0.464130000
 N       0.565150000     0.834700000     0.674880000
 N       0.702720000     0.957600000     0.586800000
 N       0.680960000     0.734280000     0.551720000
 O       0.406840000     0.736610000     0.728690000
 O       0.432020000     0.934040000     0.766260000
 O       0.568570000     1.102630000     0.546570000
 O       0.682560000     1.030700000     0.428700000
 O       0.648200000     0.753650000     0.384580000
 O       0.533760000     0.635530000     0.474130000
 H       0.677300000     0.808600000     0.201200000
 H       0.562200000     0.851200000     0.141500000
 C       0.621100000     0.784000000     0.148000000
 H       0.598500000     0.480900000     0.200200000
 H       0.700600000     0.572200000     0.238500000
 C       0.643290000     0.557600000     0.183790000
 H       0.783100000     0.642300000    -0.022600000
 H       0.828600000     0.674400000     0.089000000
 C       0.758250000     0.656570000     0.048240000
 N       0.462880000     0.665120000     0.227040000
 N       0.645520000     0.466710000     0.015310000
 N       0.614530000     0.791700000    -0.035870000
 N       0.565150000     0.665300000     0.174880000
 N       0.702720000     0.542400000     0.086800000
 N       0.680960000     0.765720000     0.051720000
 O       0.406840000     0.763390000     0.228690000
 O       0.432020000     0.565960000     0.266260000
 O       0.568570000     0.397370000     0.046570000
 O       0.682560000     0.469300000    -0.071300000
 O       0.648200000     0.746350000    -0.115420000
 O       0.533760000     0.864470000    -0.025870000
 H       0.822700000     0.191400000     0.701200000
 H       0.937800000     0.148800000     0.641500000
 C       0.878900000     0.216000000     0.648000000
 H       0.901500000     0.519100000     0.700200000
 H       0.799400000     0.427800000     0.738500000
 C       0.856710000     0.442400000     0.683790000
 H       0.716900000     0.357700000     0.477400000
 H       0.671400000     0.325600000     0.589000000
 C       0.741750000     0.343430000     0.548240000
 N       1.037120000     0.334880000     0.727040000
 N       0.854480000     0.533290000     0.515310000
 N       0.885470000     0.208300000     0.464130000
 N       0.934850000     0.334700000     0.674880000
 N       0.797280000     0.457600000     0.586800000
 N       0.819040000     0.234280000     0.551720000
 O       1.093160000     0.236610000     0.728690000
 O       1.067980000     0.434040000     0.766260000
 O       0.931430000     0.602630000     0.546570000
 O       0.817440000     0.530700000     0.428700000
 O       0.851800000     0.253650000     0.384580000
 O       0.966240000     0.135530000     0.474130000
 H       0.177300000     0.691400000     0.798800000
 H       0.062200000     0.648800000     0.858500000
 C       0.121100000     0.716000000     0.852000000
 H       0.098500000     1.019100000     0.799800000
 H       0.200600000     0.927800000     0.761500000
 C       0.143290000     0.942400000     0.816210000
 H       0.283100000     0.857700000     1.022600000
 H       0.328600000     0.825600000     0.911000000
 C       0.258250000     0.843430000     0.951760000
 N      -0.037120000     0.834880000     0.772960000
 N       0.145520000     1.033290000     0.984690000
 N       0.114530000     0.708300000     1.035870000
 N       0.065150000     0.834700000     0.825120000
 N       0.202720000     0.957600000     0.913200000
 N       0.180960000     0.734280000     0.948280000
 O      -0.093160000     0.736610000     0.771310000
 O      -0.067980000     0.934040000     0.733740000
 O       0.068570000     1.102630000     0.953430000
 O       0.182560000     1.030700000     1.071300000
 O       0.148200000     0.753650000     1.115420000
 O       0.033760000     0.635530000     1.025870000
K_POINTS {automatic}
 4 4 4  1 1 1 
