    &CONTROL 
calculation = 'scf'
prefix='ab1477_structure_1_of_1'
pseudo_dir = './'
outdir='./'
tstress=.true.
tprnfor = .true.
forc_conv_thr=1.0d-4
nstep=200
/
    &SYSTEM 
ibrav=0
celldm(1)=1.889726
nat=12
ntyp=6 
ecutwfc=36
/ 
    &ELECTRONS
mixing_beta=0.7
conv_thr =  1.0d-8
electron_maxstep=200
/
    &IONS
trust_radius_max=0.2
/
    &CELL
cell_dynamics='bfgs'
/
ATOMIC_SPECIES
  C   12.0110  C.UPF
  Cl  35.4527  Cl.UPF
  H    1.0079  H.UPF

CELL_PARAMETERS (angstrom) 
  20.000000000    0.0000000000    0.0000000000
   0.000000000   20.0000000000    0.0000000000
   0.000000000    0.0000000000   20.0000000000

ATOMIC_POSITIONS (angstrom)
C     9.99989425    8.62053308    9.96980272
C     10.99117035     9.28762116    10.68688617
C     10.99143947    10.68108278    10.71760979
C     10.00010575    11.37946692    10.03019728
C        9.00882965    10.71237884     9.31311383
C     9.00856053    9.31891722    9.28239021
H     11.75721806     8.73107862    11.22371877
H     11.75834032    11.21080274    11.27975281
H        8.24278194    11.26892138     8.77628123
H     8.24165968    8.78919726    8.72024719
Cl     9.99941234    6.87592237    9.93083556
Cl     10.00058766    13.12407763    10.06916444


K_POINTS {automatic}
 4 4 4  1 1 1 

