    &CONTROL 
calculation = 'scf'
prefix='DCLETH02'
pseudo_dir = './'
outdir='./'
tstress=.true.
tprnfor = .true.
forc_conv_thr=1.0d-4
nstep=200
/
    &SYSTEM 
ibrav=0
celldm(1)=1.889726
nat=16
ntyp=8 
ecutwfc=36
/ 
    &ELECTRONS
mixing_beta=0.7
conv_thr =  1.0d-8
electron_maxstep=200
/
    &IONS
trust_radius_max=0.2
/
    &CELL
cell_dynamics='bfgs'
/
ATOMIC_SPECIES
  C1  12.0110  C1.UPF
  H1B   1.0079  H1B.UPF
  H2B   1.0079  H2B.UPF
  H1   1.0079  H1.UPF
  C1B  12.0110  C1B.UPF
  H2   1.0079  H2.UPF
  Cl1B  35.4527  Cl1B.UPF
  Cl1  35.4527  Cl1.UPF

CELL_PARAMETERS (alat) 
   4.8190000000    0.0000000000    0.0000000000
   0.0000000000    5.3490000000    0.0000000000
  -1.7304257094    0.0000000000    7.9631543916

ATOMIC_POSITIONS (crystal)
Cl       0.821530000     0.222080000     0.583890000
 C       0.595410000     0.487870000     0.585560000
 H       0.720600000     0.628500000     0.616600000
 H       0.491600000     0.457400000     0.669000000
 C       0.404590000     0.512130000     0.414440000
Cl       0.178470000     0.777920000     0.416110000
 H       0.279400000     0.371500000     0.383400000
 H       0.508400000     0.542600000     0.331000000
 H       0.491600000     0.042600000     1.169000000
 H       0.720600000    -0.128500000     1.116600000
Cl       0.821530000     0.277920000     1.083890000
 C       0.595410000     0.012130000     1.085560000
 H       0.508400000    -0.042600000     0.831000000
 H       0.279400000     0.128500000     0.883400000
 C       0.404590000    -0.012130000     0.914440000
Cl       0.178470000    -0.277920000     0.916110000
K_POINTS {automatic}
 4 4 4  1 1 1 
