    &CONTROL 
calculation = 'scf'
prefix='dk1'
pseudo_dir = './'
outdir='./'
tstress=.true.
tprnfor = .true.
forc_conv_thr=1.0d-4
nstep=200
/
    &SYSTEM 
ibrav=0
celldm(1)=1.889726
nat=28
ntyp=7 
ecutwfc=36
/ 
    &ELECTRONS
mixing_beta=0.7
conv_thr =  1.0d-8
electron_maxstep=200
/
    &IONS
trust_radius_max=0.2
/
    &CELL
cell_dynamics='bfgs'
/
ATOMIC_SPECIES
  C12  12.0110  C12.UPF
  H121   1.0079  H121.UPF
  H122   1.0079  H122.UPF
  C11  12.0110  C11.UPF
  Cl1  35.4527  Cl1.UPF
  H112   1.0079  H112.UPF
  H111   1.0079  H111.UPF

CELL_PARAMETERS (alat) 
   5.1424000000    0.0000000000    0.0000000000
   0.0000000000    5.4910000000    0.0000000000
  -2.8273205746    0.0000000000    7.4195591762

ATOMIC_POSITIONS (crystal)
Cl       1.305400000     0.282900000     1.076000000
 C       0.994000000    -0.092000000     1.043000000
 H       0.984500000    -0.044900000     1.157900000
 H       1.162600000    -0.186600000     1.065800000
 C       1.109000000     0.019000000     1.050000000
 H       1.224100000    -0.109800000     1.030000000
 H       1.098400000    -0.012700000     1.167600000
 H       0.098400000     0.512700000     0.667600000
 H       0.224100000     0.609800000     0.530000000
 C       0.109000000     0.481000000     0.550000000
 H       0.162600000     0.686600000     0.565800000
 H      -0.015500000     0.544900000     0.657900000
 C      -0.006000000     0.592000000     0.543000000
Cl       0.305400000     0.217100000     0.576000000
 H       0.901600000     0.012700000     0.832400000
 H       0.775900000     0.109800000     0.970000000
 C       0.891000000    -0.019000000     0.950000000
 H       0.837400000     0.186600000     0.934200000
 H       1.015500000     0.044900000     0.842100000
 C       1.006000000     0.092000000     0.957000000
Cl       0.694600000    -0.282900000     0.924000000
 H      -0.098400000     0.487300000     0.332400000
 H      -0.224100000     0.390200000     0.470000000
 C      -0.109000000     0.519000000     0.450000000
 H      -0.162600000     0.313400000     0.434200000
 H       0.015500000     0.455100000     0.342100000
 C       0.006000000     0.408000000     0.457000000
Cl      -0.305400000     0.782900000     0.424000000
K_POINTS {automatic}
 4 4 4  1 1 1 
