    &CONTROL 
calculation = 'scf'
prefix='03HUR750'
pseudo_dir = './'
outdir='./'
tstress=.true.
tprnfor = .true.
forc_conv_thr=1.0d-4
nstep=200
/
    &SYSTEM 
ibrav=0
celldm(1)=1.889726
nat=48
ntyp=12 
ecutwfc=36
/ 
    &ELECTRONS
mixing_beta=0.7
conv_thr =  1.0d-8
electron_maxstep=200
/
    &IONS
trust_radius_max=0.2
/
    &CELL
cell_dynamics='bfgs'
/
ATOMIC_SPECIES
  C1  12.0110  C1.UPF
  C2  12.0110  C2.UPF
  C3  12.0110  C3.UPF
  C4  12.0110  C4.UPF
  C5  12.0110  C5.UPF
  C6  12.0110  C6.UPF
  H2   1.0079  H2.UPF
  H4   1.0079  H4.UPF
  H6   1.0079  H6.UPF
  Cl1  35.4527  Cl1.UPF
  Cl2  35.4527  Cl2.UPF
  Cl3  35.4527  Cl3.UPF

CELL_PARAMETERS (alat) 
   3.8422000000    0.0000000000    0.0000000000
   0.0000000000   13.0973000000    0.0000000000
   0.0000000000    0.0000000000   13.7984000000

ATOMIC_POSITIONS (crystal)
Cl       0.064690000     0.608750000     0.389180000
Cl       0.632020000     0.814260000     0.090560000
Cl       0.158400000     1.018440000     0.402950000
 C       0.191700000     0.723200000     0.335600000
 C       0.343200000     0.722200000     0.244900000
 H       0.379500000     0.659800000     0.211200000
 C       0.440700000     0.814500000     0.204580000
 C       0.388000000     0.906700000     0.251500000
 H       0.455300000     0.969400000     0.222500000
 C       0.233700000     0.904100000     0.342100000
 C       0.134500000     0.813800000     0.386100000
 H       0.030800000     0.813600000     0.448600000
 H       0.530800000     0.686400000     0.551400000
 C       0.634500000     0.686200000     0.613900000
 C       0.733700000     0.595900000     0.657900000
 H       0.955300000     0.530600000     0.777500000
 C       0.888000000     0.593300000     0.748500000
 C       0.940700000     0.685500000     0.795420000
 H       0.879500000     0.840200000     0.788800000
 C       0.843200000     0.777800000     0.755100000
 C       0.691700000     0.776800000     0.664400000
Cl       0.658400000     0.481560000     0.597050000
Cl       1.132020000     0.685740000     0.909440000
Cl       0.564690000     0.891250000     0.610820000
 H       0.969200000     0.313600000     0.051400000
 C       0.865500000     0.313800000     0.113900000
 C       0.766300000     0.404100000     0.157900000
 H       0.544700000     0.469400000     0.277500000
 C       0.612000000     0.406700000     0.248500000
 C       0.559300000     0.314500000     0.295420000
 H       0.620500000     0.159800000     0.288800000
 C       0.656800000     0.222200000     0.255100000
 C       0.808300000     0.223200000     0.164400000
Cl       0.841600000     0.518440000     0.097050000
Cl       0.367980000     0.314260000     0.409440000
Cl       0.935310000     0.108750000     0.110820000
 H       0.469200000     0.186400000     0.948600000
 C       0.365500000     0.186200000     0.886100000
 C       0.266300000     0.095900000     0.842100000
 H       0.044700000     0.030600000     0.722500000
 C       0.112000000     0.093300000     0.751500000
 C       0.059300000     0.185500000     0.704580000
 H       0.120500000     0.340200000     0.711200000
 C       0.156800000     0.277800000     0.744900000
 C       0.308300000     0.276800000     0.835600000
Cl       0.341600000    -0.018440000     0.902950000
Cl      -0.132020000     0.185740000     0.590560000
Cl       0.435310000     0.391250000     0.889180000
K_POINTS {automatic}
 4 4 4  1 1 1 
