    &CONTROL 
calculation = 'scf'
prefix='scf-pbe-ec80-n24-15removed'
restart_mode = 'restart'
pseudo_dir = '/users/majewski/.data/gipaw-pseudos/'
outdir='./scratch/'
tstress=.true.
tprnfor = .true.
forc_conv_thr=1.0e-4
!nstep=200
/
    &SYSTEM 
ibrav=0
celldm(1)=1.889726
nat=68
ntyp=3 
ecutwfc=80
ecutrho=1000
/ 
    &ELECTRONS
mixing_beta=0.7
conv_thr =  1.0d-9
!electron_maxstep=200
diago_thr_init   = 1e-4
diagonalization  = 'david'

/
    &IONS
trust_radius_max=0.2
/
    &CELL
cell_dynamics='bfgs'
/
ATOMIC_SPECIES
  C  12.0110  C.pbe-n-kjpaw_psl.0.1.UPF
  H   1.01    H.pbe-kjpaw_psl.0.1.UPF
  N  14.0067  N.pbe-n-kjpaw_psl.0.1.UPF

CELL_PARAMETERS (alat) 
   6.6593000000    0.0000000000    0.0000000000
   0.0000000000    7.0878000000    0.0000000000
   0.0000000000    0.0000000000   11.7358000000

ATOMIC_POSITIONS (crystal)
 N       0.341700000     1.068600000     0.053570000
 C       0.475600000     0.952100000     0.102320000
 C       0.444400000     0.875100000     0.210100000
 H       0.543200000     0.796000000     0.243700000
 C       0.268300000     0.914800000     0.268000000
 H       0.244000000     0.863200000     0.341400000
 C       0.129300000     1.030600000     0.216800000
 H       0.006100000     1.059200000     0.253900000
 C       0.171600000     1.104500000     0.110900000
 H       0.075100000     1.185200000     0.076500000
 C       0.660600000     0.907700000     0.034200000
 H       0.735900000     1.024200000     0.020100000
 H       0.621700000     0.851000000    -0.038600000
 H       0.744900000     0.819000000     0.076800000
 H       0.677600000     1.002600000    -0.025700000
 H       0.646800000     0.782600000    -0.000400000
 H       0.778100000     0.909000000     0.084500000
 H       0.221900000     0.409000000     0.415500000
 H       0.353200000     0.282600000     0.500400000
 H       0.322400000     0.502600000     0.525700000
 H       0.255100000     0.319000000     0.423200000
 H       0.378300000     0.351000000     0.538600000
 H       0.264100000     0.524200000     0.479900000
 C       0.339400000     0.407700000     0.465800000
 H       0.924900000     0.685200000     0.423500000
 C       0.828400000     0.604500000     0.389100000
 H       0.993900000     0.559200000     0.246100000
 C       0.870700000     0.530600000     0.283200000
 H       0.756000000     0.363200000     0.158600000
 C       0.731700000     0.414800000     0.232000000
 H       0.456800000     0.296000000     0.256300000
 C       0.555600000     0.375100000     0.289900000
 C       0.524400000     0.452100000     0.397680000
 N       0.658300000     0.568600000     0.446430000
 H       1.278100000     0.591000000     0.915500000
 H       1.146800000     0.717400000     1.000400000
 H       1.177600000     0.497400000     1.025700000
 H       1.244900000     0.681000000     0.923200000
 H       1.121700000     0.649000000     1.038600000
 H       1.235900000     0.475800000     0.979900000
 C       1.160600000     0.592300000     0.965800000
 H       0.575100000     0.314800000     0.923500000
 C       0.671600000     0.395500000     0.889100000
 H       0.506100000     0.440800000     0.746100000
 C       0.629300000     0.469400000     0.783200000
 H       0.744000000     0.636800000     0.658600000
 C       0.768300000     0.585200000     0.732000000
 H       1.043200000     0.704000000     0.756300000
 C       0.944400000     0.624900000     0.789900000
 C       0.975600000     0.547900000     0.897680000
 N       0.841700000     0.431400000     0.946430000
 H      -0.278100000     0.091000000     0.584500000
 H      -0.146800000     0.217400000     0.499600000
 H      -0.177600000    -0.002600000     0.474300000
 H      -0.244900000     0.181000000     0.576800000
 H      -0.121700000     0.149000000     0.461400000
 H      -0.235900000    -0.024200000     0.520100000
 C      -0.160600000     0.092300000     0.534200000
 H       0.424900000    -0.185200000     0.576500000
 C       0.328400000    -0.104500000     0.610900000
 H       0.493900000    -0.059200000     0.753900000
 C       0.370700000    -0.030600000     0.716800000
 H       0.256000000     0.136800000     0.841400000
 C       0.231700000     0.085200000     0.768000000
 H      -0.043200000     0.204000000     0.743700000
 C       0.055600000     0.124900000     0.710100000
 C       0.024400000     0.047900000     0.602320000
 N       0.158300000    -0.068600000     0.553570000
K_POINTS {automatic}
 4 4 4  1 1 1 
