    &CONTROL 
calculation = 'scf'
prefix='ab1477_structure_1_of_1'
pseudo_dir = './'
outdir='./'
tstress=.true.
tprnfor = .true.
forc_conv_thr=1.0d-4
nstep=200
/
    &SYSTEM 
ibrav=0
celldm(1)=1.889726
nat=12
ntyp=6 
ecutwfc=36
/ 
    &ELECTRONS
mixing_beta=0.7
conv_thr =  1.0d-8
electron_maxstep=200
/
    &IONS
trust_radius_max=0.2
/
    &CELL
cell_dynamics='bfgs'
/
ATOMIC_SPECIES
  C3  12.0110  C3.UPF
  Cl  35.4527  Cl.UPF
  H2   1.0079  H2.UPF
  H3   1.0079  H3.UPF
  C1  12.0110  C1.UPF
  C2  12.0110  C2.UPF

CELL_PARAMETERS (alat) 
  14.7620000000    0.0000000000    0.0000000000
   0.0000000000    5.8320000000    0.0000000000
  -1.5638756447    0.0000000000    3.7239513917

ATOMIC_POSITIONS (crystal)
C    0.07326327 -0.67284655 -0.00810894
C    0.09870439 -0.46836837  0.1844509 
C    0.02471081 -0.32284504  0.19270117
C   -0.07326327 -0.38476662  0.00810894
C   -0.09870439 -0.5892448  -0.1844509 
C   -0.02471081 -0.73476812 -0.19270117
H    0.17548025 -0.42228015  0.32860761
H    0.04387077 -0.16322771  0.34365454
H   -0.17548025 -0.63533302 -0.32860761
H   -0.04387077 -0.89438546 -0.34365454
Cl   0.16588282 -0.85506113 -0.01857286
Cl  -0.16588281 -0.20255204  0.01857286

K_POINTS {automatic}
 4 4 4  1 1 1 
