    &CONTROL 
calculation = 'scf'
prefix='ab1477_structure_1_of_1'
pseudo_dir = './'
outdir='./'
tstress=.true.
tprnfor = .true.
forc_conv_thr=1.0d-4
nstep=200
/
    &SYSTEM 
ibrav=0
celldm(1)=1.889726
nat=12
ntyp=6 
ecutwfc=36
/ 
    &ELECTRONS
mixing_beta=0.7
conv_thr =  1.0d-8
electron_maxstep=200
/
    &IONS
trust_radius_max=0.2
/
    &CELL
cell_dynamics='bfgs'
/
ATOMIC_SPECIES
  C   12.0110  C.UPF
  Cl  35.4527  Cl.UPF
  H    1.0079  H.UPF

CELL_PARAMETERS (angstrom) 
  20.000000000    0.0000000000    0.0000000000
   0.000000000   20.0000000000    0.0000000000
   0.000000000    0.0000000000   20.0000000000

ATOMIC_POSITIONS (angstrom)
C     13.92326952        2.35317174      8.62053308
C     15.14666376        2.36515084      9.28762116
C     15.16464631        2.39006352     10.68108278
C     13.9583594         2.40232709     11.37946692
C     12.73496515        2.39034798     10.71237884
C     12.71698261        2.36543531      9.31891722
H     16.0820752         2.36027472      8.73107862
H     16.11538715        2.40534564     11.21080274
H     11.79955371        2.3952241      11.26892138
H     11.76624177        2.35015319      8.78919726
Cl    13.90034732        2.32165595      6.87592237
Cl    13.98128159        2.43384287     13.12407763


K_POINTS {automatic}
 4 4 4  1 1 1 

