    &CONTROL 
calculation = 'scf'
prefix='ab1477_structure_1_of_1'
pseudo_dir = './'
outdir='./'
tstress=.true.
tprnfor = .true.
forc_conv_thr=1.0d-4
nstep=200
/
    &SYSTEM 
ibrav=0
celldm(1)=1.889726
nat=12
ntyp=6 
ecutwfc=36
/ 
    &ELECTRONS
mixing_beta=0.7
conv_thr =  1.0d-8
electron_maxstep=200
/
    &IONS
trust_radius_max=0.2
/
    &CELL
cell_dynamics='bfgs'
/
ATOMIC_SPECIES
  C   12.0110  C.UPF
  Cl  35.4527  Cl.UPF
  H    1.0079  H.UPF

CELL_PARAMETERS (angstrom) 
  20.000000000    0.0000000000    0.0000000000
   0.000000000   20.0000000000    0.0000000000
   0.000000000    0.0000000000   20.0000000000

ATOMIC_POSITIONS (angstrom)
C         2.16178376     13.92326952      8.67050741
C         2.15899425     15.14666376      9.33769721
C         2.1530572      15.16464631     10.73136886
C         2.14985936     13.9583594      11.42985335
C         2.15264887     12.73496515     10.76266355
C         2.15858592     12.71698261      9.3689919 
H         2.16643813     16.0820752       8.78118309
H         2.15661048     16.11538715     11.2612973 
H         2.14520499     11.79955371     11.31917767
H         2.15503265     11.76624177      8.83906346
Cl        2.16889183     13.90034732      6.92562654
Cl        2.14275128     13.98128159     13.17473422


K_POINTS {automatic}
 4 4 4  1 1 1 

