    &CONTROL 
calculation = 'scf'
prefix='ab1477_structure_1_of_1'
pseudo_dir = './'
outdir='./'
tstress=.true.
tprnfor = .true.
forc_conv_thr=1.0d-4
nstep=200
/
    &SYSTEM 
ibrav=0
celldm(1)=1.889726
nat=12
ntyp=6 
ecutwfc=36
/ 
    &ELECTRONS
mixing_beta=0.7
conv_thr =  1.0d-8
electron_maxstep=200
/
    &IONS
trust_radius_max=0.2
/
    &CELL
cell_dynamics='bfgs'
/
ATOMIC_SPECIES
  C   12.0110  C.UPF
  Cl  35.4527  Cl.UPF
  H    1.0079  H.UPF

CELL_PARAMETERS (angstrom) 
  20.000000000    0.0000000000    0.0000000000
   0.000000000   20.0000000000    0.0000000000
   0.000000000    0.0000000000   20.0000000000

ATOMIC_POSITIONS (angstrom)
C      10.0059622    9.98245506   8.62032703
C      10.00317269  11.2058493    9.28751683
C       9.99723564  11.22383186  10.68118848
C       9.99403781  10.01754494  11.37967297
C       9.99682732   8.7941507   10.71248317
C      10.00276436   8.77616816   9.31881152
H      10.01061657  12.14126074   8.73100271
H      10.00078892  12.1745727   11.21111692
H       9.98938344   7.85873925  11.26899729
H      9.99921109  7.82542732  8.78888308
Cl      10.01307028   9.95953286   6.87544616
Cl       9.98692972  10.04046714  13.12455384


K_POINTS {automatic}
 4 4 4  1 1 1 
