    &CONTROL 
calculation = 'scf'
prefix='11DCE_100K'
pseudo_dir = './'
outdir='./'
tstress=.true.
tprnfor = .true.
forc_conv_thr=1.0d-4
nstep=200
/
    &SYSTEM 
ibrav=0
celldm(1)=1.889726
nat=32
ntyp=6 
ecutwfc=36
/ 
    &ELECTRONS
mixing_beta=0.7
conv_thr =  1.0d-8
electron_maxstep=200
/
    &IONS
trust_radius_max=0.2
/
    &CELL
cell_dynamics='bfgs'
/
ATOMIC_SPECIES
  H21   1.0079  H21.UPF
  H22   1.0079  H22.UPF
  H11   1.0079  H11.UPF
  Cl1  35.4527  Cl1.UPF
  C1  12.0110  C1.UPF
  C2  12.0110  C2.UPF

CELL_PARAMETERS (alat) 
   7.7446000000    0.0000000000    0.0000000000
   0.0000000000    9.3368000000    0.0000000000
   0.0000000000    0.0000000000    5.8584000000

ATOMIC_POSITIONS (crystal)
Cl       0.888560000     0.594540000     0.234090000
 C       0.933700000     0.750000000     0.402700000
 H       1.059000000     0.750000000     0.429000000
 C       0.828900000     0.750000000     0.618000000
 H       0.710000000     0.750000000     0.575000000
 H       0.852000000     0.666700000     0.704000000
 H       0.648000000     0.166700000     1.204000000
Cl       0.611440000     0.094540000     0.734090000
 H       0.852000000     0.833300000     0.704000000
Cl       0.888560000     0.905460000     0.234090000
 H       0.352000000     0.666700000    -0.204000000
Cl       0.388560000     0.594540000     0.265910000
 H       0.148000000     0.333300000     0.296000000
Cl       0.111440000     0.405460000     0.765910000
 H       0.352000000     0.833300000    -0.204000000
 H       0.210000000     0.750000000    -0.075000000
 C       0.328900000     0.750000000    -0.118000000
 H       0.559000000     0.750000000     0.071000000
 C       0.433700000     0.750000000     0.097300000
Cl       0.388560000     0.905460000     0.265910000
 H       0.148000000     0.166700000     0.296000000
 H       0.290000000     0.250000000     0.425000000
 C       0.171100000     0.250000000     0.382000000
 H      -0.059000000     0.250000000     0.571000000
 C       0.066300000     0.250000000     0.597300000
Cl       0.111440000     0.094540000     0.765910000
 H       0.648000000     0.333300000     1.204000000
 H       0.790000000     0.250000000     1.075000000
 C       0.671100000     0.250000000     1.118000000
 H       0.441000000     0.250000000     0.929000000
 C       0.566300000     0.250000000     0.902700000
Cl       0.611440000     0.405460000     0.734090000
K_POINTS {automatic}
 4 4 4  1 1 1 
