    &CONTROL 
calculation = 'scf'
prefix='11DCE_151GPa'
pseudo_dir = './'
outdir='./'
tstress=.true.
tprnfor = .true.
forc_conv_thr=1.0d-4
nstep=200
/
    &SYSTEM 
ibrav=0
celldm(1)=1.889726
nat=32
ntyp=6 
ecutwfc=36
/ 
    &ELECTRONS
mixing_beta=0.7
conv_thr =  1.0d-8
electron_maxstep=200
/
    &IONS
trust_radius_max=0.2
/
    &CELL
cell_dynamics='bfgs'
/
ATOMIC_SPECIES
  H21   1.0079  H21.UPF
  H22   1.0079  H22.UPF
  H11   1.0079  H11.UPF
  Cl1  35.4527  Cl1.UPF
  C1  12.0110  C1.UPF
  C2  12.0110  C2.UPF

CELL_PARAMETERS (alat) 
   7.3833000000    0.0000000000    0.0000000000
   0.0000000000    9.0641000000    0.0000000000
   0.0000000000    0.0000000000    5.6461000000

ATOMIC_POSITIONS (crystal)
Cl       0.891930000     0.590820000     0.236730000
 C       0.936700000     0.750000000     0.412500000
 H       1.067000000     0.750000000     0.435000000
 C       0.821900000     0.750000000     0.632000000
 H       0.699000000     0.750000000     0.569000000
 H       0.852000000     0.660000000     0.717000000
 H       0.648000000     0.160000000     1.217000000
Cl       0.608070000     0.090820000     0.736730000
 H       0.852000000     0.840000000     0.717000000
Cl       0.891930000     0.909180000     0.236730000
 H       0.352000000     0.660000000    -0.217000000
Cl       0.391930000     0.590820000     0.263270000
 H       0.148000000     0.340000000     0.283000000
Cl       0.108070000     0.409180000     0.763270000
 H       0.352000000     0.840000000    -0.217000000
 H       0.199000000     0.750000000    -0.069000000
 C       0.321900000     0.750000000    -0.132000000
 H       0.567000000     0.750000000     0.065000000
 C       0.436700000     0.750000000     0.087500000
Cl       0.391930000     0.909180000     0.263270000
 H       0.148000000     0.160000000     0.283000000
 H       0.301000000     0.250000000     0.431000000
 C       0.178100000     0.250000000     0.368000000
 H      -0.067000000     0.250000000     0.565000000
 C       0.063300000     0.250000000     0.587500000
Cl       0.108070000     0.090820000     0.763270000
 H       0.648000000     0.340000000     1.217000000
 H       0.801000000     0.250000000     1.069000000
 C       0.678100000     0.250000000     1.132000000
 H       0.433000000     0.250000000     0.935000000
 C       0.563300000     0.250000000     0.912500000
Cl       0.608070000     0.409180000     0.736730000
K_POINTS {automatic}
 4 4 4  1 1 1 
