    &CONTROL 
calculation = 'scf'
prefix='11DCE_160K'
pseudo_dir = './'
outdir='./'
tstress=.true.
tprnfor = .true.
forc_conv_thr=1.0d-4
nstep=200
/
    &SYSTEM 
ibrav=0
celldm(1)=1.889726
nat=32
ntyp=6 
ecutwfc=36
/ 
    &ELECTRONS
mixing_beta=0.7
conv_thr =  1.0d-8
electron_maxstep=200
/
    &IONS
trust_radius_max=0.2
/
    &CELL
cell_dynamics='bfgs'
/
ATOMIC_SPECIES
  H21   1.0079  H21.UPF
  H22   1.0079  H22.UPF
  H11   1.0079  H11.UPF
  Cl1  35.4527  Cl1.UPF
  C1  12.0110  C1.UPF
  C2  12.0110  C2.UPF

CELL_PARAMETERS (alat) 
   7.8716000000    0.0000000000    0.0000000000
   0.0000000000    9.4040000000    0.0000000000
   0.0000000000    0.0000000000    5.8862000000

ATOMIC_POSITIONS (crystal)
Cl       0.886690000     0.595710000     0.234260000
 C       0.932900000     0.750000000     0.401000000
 H       1.053000000     0.750000000     0.420000000
 C       0.831100000     0.750000000     0.615100000
 H       0.716000000     0.750000000     0.572000000
 H       0.859000000     0.668000000     0.695000000
 H       0.641000000     0.168000000     1.195000000
Cl       0.613310000     0.095710000     0.734260000
 H       0.859000000     0.832000000     0.695000000
Cl       0.886690000     0.904290000     0.234260000
 H       0.359000000     0.668000000    -0.195000000
Cl       0.386690000     0.595710000     0.265740000
 H       0.141000000     0.332000000     0.305000000
Cl       0.113310000     0.404290000     0.765740000
 H       0.359000000     0.832000000    -0.195000000
 H       0.216000000     0.750000000    -0.072000000
 C       0.331100000     0.750000000    -0.115100000
 H       0.553000000     0.750000000     0.080000000
 C       0.432900000     0.750000000     0.099000000
Cl       0.386690000     0.904290000     0.265740000
 H       0.141000000     0.168000000     0.305000000
 H       0.284000000     0.250000000     0.428000000
 C       0.168900000     0.250000000     0.384900000
 H      -0.053000000     0.250000000     0.580000000
 C       0.067100000     0.250000000     0.599000000
Cl       0.113310000     0.095710000     0.765740000
 H       0.641000000     0.332000000     1.195000000
 H       0.784000000     0.250000000     1.072000000
 C       0.668900000     0.250000000     1.115100000
 H       0.447000000     0.250000000     0.920000000
 C       0.567100000     0.250000000     0.901000000
Cl       0.613310000     0.404290000     0.734260000
K_POINTS {automatic}
 4 4 4  1 1 1 
