    &CONTROL 
calculation = 'scf'
prefix='11DCE_059GPa'
pseudo_dir = './'
outdir='./'
tstress=.true.
tprnfor = .true.
forc_conv_thr=1.0d-4
nstep=200
/
    &SYSTEM 
ibrav=0
celldm(1)=1.889726
nat=32
ntyp=6 
ecutwfc=36
/ 
    &ELECTRONS
mixing_beta=0.7
conv_thr =  1.0d-8
electron_maxstep=200
/
    &IONS
trust_radius_max=0.2
/
    &CELL
cell_dynamics='bfgs'
/
ATOMIC_SPECIES
  H21   1.0079  H21.UPF
  H22   1.0079  H22.UPF
  H11   1.0079  H11.UPF
  Cl1  35.4527  Cl1.UPF
  C1  12.0110  C1.UPF
  C2  12.0110  C2.UPF

CELL_PARAMETERS (alat) 
   7.5572000000    0.0000000000    0.0000000000
   0.0000000000    9.1829000000    0.0000000000
   0.0000000000    0.0000000000    5.7130000000

ATOMIC_POSITIONS (crystal)
Cl       0.889640000     0.592560000     0.235200000
 C       0.934600000     0.750000000     0.409100000
 H       1.046000000     0.750000000     0.451000000
 C       0.824900000     0.750000000     0.628800000
 H       0.723000000     0.750000000     0.569000000
 H       0.847000000     0.674000000     0.704000000
 H       0.653000000     0.174000000     1.204000000
Cl       0.610360000     0.092560000     0.735200000
 H       0.847000000     0.826000000     0.704000000
Cl       0.889640000     0.907440000     0.235200000
 H       0.347000000     0.674000000    -0.204000000
Cl       0.389640000     0.592560000     0.264800000
 H       0.153000000     0.326000000     0.296000000
Cl       0.110360000     0.407440000     0.764800000
 H       0.347000000     0.826000000    -0.204000000
 H       0.223000000     0.750000000    -0.069000000
 C       0.324900000     0.750000000    -0.128800000
 H       0.546000000     0.750000000     0.049000000
 C       0.434600000     0.750000000     0.090900000
Cl       0.389640000     0.907440000     0.264800000
 H       0.153000000     0.174000000     0.296000000
 H       0.277000000     0.250000000     0.431000000
 C       0.175100000     0.250000000     0.371200000
 H      -0.046000000     0.250000000     0.549000000
 C       0.065400000     0.250000000     0.590900000
Cl       0.110360000     0.092560000     0.764800000
 H       0.653000000     0.326000000     1.204000000
 H       0.777000000     0.250000000     1.069000000
 C       0.675100000     0.250000000     1.128800000
 H       0.454000000     0.250000000     0.951000000
 C       0.565400000     0.250000000     0.909100000
Cl       0.610360000     0.407440000     0.735200000
K_POINTS {automatic}
 4 4 4  1 1 1 
