    &CONTROL 
calculation = 'scf'
prefix='otnt'
pseudo_dir = './'
outdir='./'
tstress=.true.
tprnfor = .true.
forc_conv_thr=1.0d-4
nstep=200
/
    &SYSTEM 
ibrav=0
celldm(1)=1.889726
nat=168
ntyp=42 
ecutwfc=36
/ 
    &ELECTRONS
mixing_beta=0.7
conv_thr =  1.0d-8
electron_maxstep=200
/
    &IONS
trust_radius_max=0.2
/
    &CELL
cell_dynamics='bfgs'
/
ATOMIC_SPECIES
  N1  14.0067  N1.UPF
  N2  14.0067  N2.UPF
  N3  14.0067  N3.UPF
  N4  14.0067  N4.UPF
  N5  14.0067  N5.UPF
  N6  14.0067  N6.UPF
  C1  12.0110  C1.UPF
  C2  12.0110  C2.UPF
  C3  12.0110  C3.UPF
  C4  12.0110  C4.UPF
  C8  12.0110  C8.UPF
  C6  12.0110  C6.UPF
  C7  12.0110  C7.UPF
  C5  12.0110  C5.UPF
  C9  12.0110  C9.UPF
  C13  12.0110  C13.UPF
  O10  15.9994  O10.UPF
  O11  15.9994  O11.UPF
  O12  15.9994  O12.UPF
  C12  12.0110  C12.UPF
  C14  12.0110  C14.UPF
  C10  12.0110  C10.UPF
  C11  12.0110  C11.UPF
  H10   1.0079  H10.UPF
  O1  15.9994  O1.UPF
  O2  15.9994  O2.UPF
  O3  15.9994  O3.UPF
  O4  15.9994  O4.UPF
  O5  15.9994  O5.UPF
  O6  15.9994  O6.UPF
  O7  15.9994  O7.UPF
  O8  15.9994  O8.UPF
  O9  15.9994  O9.UPF
  H1   1.0079  H1.UPF
  H2   1.0079  H2.UPF
  H3   1.0079  H3.UPF
  H4   1.0079  H4.UPF
  H5   1.0079  H5.UPF
  H6   1.0079  H6.UPF
  H7   1.0079  H7.UPF
  H8   1.0079  H8.UPF
  H9   1.0079  H9.UPF

CELL_PARAMETERS (alat) 
  14.9100000000    0.0000000000    0.0000000000
   0.0000000000    6.0341000000    0.0000000000
   0.0000000000    0.0000000000   19.6800000000

ATOMIC_POSITIONS (crystal)
 O       0.630790000    -0.262800000     0.512500000
 O       0.739120000    -0.031900000     0.491620000
 O       0.752390000     0.467000000     0.699910000
 O       0.664470000     0.742800000     0.674620000
 O       0.363400000     0.502500000     0.569920000
 O       0.348100000     0.170200000     0.610420000
 O       0.122370000    -0.019000000     0.841410000
 O       0.098640000     0.323600000     0.814170000
 O       0.413450000    -0.221900000     0.725910000
 O       0.513320000     0.038300000     0.718610000
 O       0.491160000     0.530500000     0.925210000
 O       0.386210000     0.765900000     0.899190000
 N       0.666510000    -0.079800000     0.516820000
 N       0.687090000     0.548600000     0.671050000
 N       0.393410000     0.323900000     0.588750000
 N       0.148020000     0.168200000     0.827870000
 N       0.442030000    -0.035600000     0.739150000
 N       0.420170000     0.580400000     0.897520000
 C       0.619240000     0.094300000     0.555170000
 C       0.673050000     0.229200000     0.594960000
 C       0.632340000     0.400000000     0.629230000
 C       0.541280000     0.440900000     0.624980000
 C       0.491610000     0.293400000     0.587150000
 C       0.526370000     0.115700000     0.549710000
 C       0.468200000    -0.026500000     0.505200000
 C       0.246010000     0.207500000     0.826910000
 C       0.295650000     0.064100000     0.787210000
 C       0.386750000     0.106400000     0.782730000
 C       0.427620000     0.276000000     0.817890000
 C       0.373540000     0.406400000     0.858430000
 C       0.280650000     0.383000000     0.864720000
 C       0.223400000     0.522300000     0.911000000
 H       0.739000000     0.200000000     0.597100000
 H       0.511000000     0.547000000     0.652100000
 H       0.494000000    -0.065000000     0.464200000
 H       0.453000000    -0.177000000     0.529000000
 H       0.413000000     0.055000000     0.493500000
 H       0.271000000    -0.069000000     0.763300000
 H       0.488100000     0.304000000     0.815700000
 H       0.258000000     0.567000000     0.950100000
 H       0.169000000     0.447000000     0.926300000
 H       0.207000000     0.661000000     0.885700000
 H       0.707000000     0.339000000     0.885700000
 H       0.669000000     0.553000000     0.926300000
 H       0.758000000     0.433000000     0.950100000
 H       0.988100000     0.696000000     0.815700000
 H       0.771000000     1.069000000     0.763300000
 H      -0.087000000     0.945000000     0.493500000
 H      -0.047000000     1.177000000     0.529000000
 H      -0.006000000     1.065000000     0.464200000
 H       0.011000000     0.453000000     0.652100000
 H       0.239000000     0.800000000     0.597100000
 C       0.723400000     0.477700000     0.911000000
 C       0.780650000     0.617000000     0.864720000
 C       0.873540000     0.593600000     0.858430000
 C       0.927620000     0.724000000     0.817890000
 C       0.886750000     0.893600000     0.782730000
 C       0.795650000     0.935900000     0.787210000
 C       0.746010000     0.792500000     0.826910000
 C      -0.031800000     1.026500000     0.505200000
 C       0.026370000     0.884300000     0.549710000
 C      -0.008390000     0.706600000     0.587150000
 C       0.041280000     0.559100000     0.624980000
 C       0.132340000     0.600000000     0.629230000
 C       0.173050000     0.770800000     0.594960000
 C       0.119240000     0.905700000     0.555170000
 N       0.920170000     0.419600000     0.897520000
 N       0.942030000     1.035600000     0.739150000
 N       0.648020000     0.831800000     0.827870000
 N      -0.106590000     0.676100000     0.588750000
 N       0.187090000     0.451400000     0.671050000
 N       0.166510000     1.079800000     0.516820000
 O       0.886210000     0.234100000     0.899190000
 O       0.991160000     0.469500000     0.925210000
 O       1.013320000     0.961700000     0.718610000
 O       0.913450000     1.221900000     0.725910000
 O       0.598640000     0.676400000     0.814170000
 O       0.622370000     1.019000000     0.841410000
 O      -0.151900000     0.829800000     0.610420000
 O      -0.136600000     0.497500000     0.569920000
 O       0.164470000     0.257200000     0.674620000
 O       0.252390000     0.533000000     0.699910000
 O       0.239120000     1.031900000     0.491620000
 O       0.130790000     1.262800000     0.512500000
 H       0.293000000     0.661000000     0.385700000
 H       0.331000000     0.447000000     0.426300000
 H       0.242000000     0.567000000     0.450100000
 H       0.011900000     0.304000000     0.315700000
 H       0.229000000    -0.069000000     0.263300000
 H       1.087000000     0.055000000    -0.006500000
 H       1.047000000    -0.177000000     0.029000000
 H       1.006000000    -0.065000000    -0.035800000
 H       0.989000000     0.547000000     0.152100000
 H       0.761000000     0.200000000     0.097100000
 C       0.276600000     0.522300000     0.411000000
 C       0.219350000     0.383000000     0.364720000
 C       0.126460000     0.406400000     0.358430000
 C       0.072380000     0.276000000     0.317890000
 C       0.113250000     0.106400000     0.282730000
 C       0.204350000     0.064100000     0.287210000
 C       0.253990000     0.207500000     0.326910000
 C       1.031800000    -0.026500000     0.005200000
 C       0.973630000     0.115700000     0.049710000
 C       1.008390000     0.293400000     0.087150000
 C       0.958720000     0.440900000     0.124980000
 C       0.867660000     0.400000000     0.129230000
 C       0.826950000     0.229200000     0.094960000
 C       0.880760000     0.094300000     0.055170000
 N       0.079830000     0.580400000     0.397520000
 N       0.057970000    -0.035600000     0.239150000
 N       0.351980000     0.168200000     0.327870000
 N       1.106590000     0.323900000     0.088750000
 N       0.812910000     0.548600000     0.171050000
 N       0.833490000    -0.079800000     0.016820000
 O       0.113790000     0.765900000     0.399190000
 O       0.008840000     0.530500000     0.425210000
 O      -0.013320000     0.038300000     0.218610000
 O       0.086550000    -0.221900000     0.225910000
 O       0.401360000     0.323600000     0.314170000
 O       0.377630000    -0.019000000     0.341410000
 O       1.151900000     0.170200000     0.110420000
 O       1.136600000     0.502500000     0.069920000
 O       0.835530000     0.742800000     0.174620000
 O       0.747610000     0.467000000     0.199910000
 O       0.760880000    -0.031900000    -0.008380000
 O       0.869210000    -0.262800000     0.012500000
 H       0.793000000     0.339000000     0.385700000
 H       0.831000000     0.553000000     0.426300000
 H       0.742000000     0.433000000     0.450100000
 H       0.511900000     0.696000000     0.315700000
 H       0.729000000     1.069000000     0.263300000
 H       0.587000000     0.945000000    -0.006500000
 H       0.547000000     1.177000000     0.029000000
 H       0.506000000     1.065000000    -0.035800000
 H       0.489000000     0.453000000     0.152100000
 H       0.261000000     0.800000000     0.097100000
 C       0.776600000     0.477700000     0.411000000
 C       0.719350000     0.617000000     0.364720000
 C       0.626460000     0.593600000     0.358430000
 C       0.572380000     0.724000000     0.317890000
 C       0.613250000     0.893600000     0.282730000
 C       0.704350000     0.935900000     0.287210000
 C       0.753990000     0.792500000     0.326910000
 C       0.531800000     1.026500000     0.005200000
 C       0.473630000     0.884300000     0.049710000
 C       0.508390000     0.706600000     0.087150000
 C       0.458720000     0.559100000     0.124980000
 C       0.367660000     0.600000000     0.129230000
 C       0.326950000     0.770800000     0.094960000
 C       0.380760000     0.905700000     0.055170000
 N       0.579830000     0.419600000     0.397520000
 N       0.557970000     1.035600000     0.239150000
 N       0.851980000     0.831800000     0.327870000
 N       0.606590000     0.676100000     0.088750000
 N       0.312910000     0.451400000     0.171050000
 N       0.333490000     1.079800000     0.016820000
 O       0.613790000     0.234100000     0.399190000
 O       0.508840000     0.469500000     0.425210000
 O       0.486680000     0.961700000     0.218610000
 O       0.586550000     1.221900000     0.225910000
 O       0.901360000     0.676400000     0.314170000
 O       0.877630000     1.019000000     0.341410000
 O       0.651900000     0.829800000     0.110420000
 O       0.636600000     0.497500000     0.069920000
 O       0.335530000     0.257200000     0.174620000
 O       0.247610000     0.533000000     0.199910000
 O       0.260880000     1.031900000    -0.008380000
 O       0.369210000     1.262800000     0.012500000
K_POINTS {automatic}
 4 4 4  1 1 1 
