&control
    calculation       = 'relax'
    restart_mode      = 'restart'
    prefix            = 'run-mystery'
    tstress           = .true.
    tprnfor           = .true.
    wf_collect        = .false.
    verbosity         = 'high'
    pseudo_dir        = './PSEUDOPOTENTIALS_GIPAW/'
    outdir            = './scratch/'
/

&system
    ibrav             = 6

    a                 =  9.558
    c                 =  8.981

    ecutwfc           =  60
    ecutrho           = 600

    ntyp              =   6
    nat               =  70

!    occupations       = 'smearing'
!    smearing          = 'Fermi-Dirac'
!    degauss           = 0.0036749326
/

&electrons
    conv_thr          = 1e-7
    mixing_beta       = 0.7
/
&ions
/
!&cell
!/

ATOMIC_SPECIES
H      1.0   H.pbe-kjpaw_psl.0.1.UPF
C      1.0   C.pbe-n-kjpaw_psl.0.1.UPF
N      1.0   N.pbe-n-kjpaw_psl.0.1.UPF
S      1.0   S.pbe-n-kjpaw_psl.0.1.UPF
Cl     1.0   Cl.pbe-n-kjpaw_psl.0.3.0.UPF
Ni     1.0   Ni.pbe-n-kjpaw_psl.0.1.UPF

ATOMIC_POSITIONS (crystal)
C        0.152448313   0.307541357   0.080233243
C       -0.152448313  -0.307541357   0.080233243
C        0.192464312   0.652459677   0.580219964
C       -0.307541357   0.152448313   0.080233243
C        0.307541357  -0.152448313   0.080233243
C        0.347540323   0.192464312   0.580219964
C        0.652459677   0.807535688   0.580219964
C        0.807535688   0.347540323   0.580219964
Cl       0.000000000   0.000000000  -0.323403747
Cl       0.000000000   0.000000000   0.309915509
Cl       0.500000000   0.500000000   0.176598075
Cl       0.500000000   0.500000000   0.809919883
H        0.025315953   0.669941067   0.441279432
H        0.027073347   0.790490330   0.587610239
H        0.169935543   0.474686931  -0.058727273
H       -0.169935543  -0.474686931  -0.058727273
H       -0.209719269   0.220687791  -0.234407475
H        0.209719269  -0.220687791  -0.234407475
H        0.220687791   0.209719269  -0.234407475
H       -0.220687791  -0.209719269  -0.234407475
H        0.154793147   0.844130821   0.237165890
H        0.155869179   0.154793147   0.237165890
H        0.209509670   0.027073347   0.587610239
H        0.290472689   0.472944936   0.087613647
H       -0.290472689  -0.472944936   0.087613647
H        0.344140762   0.345206053  -0.262812868
H       -0.344140762  -0.345206053  -0.262812868
H       -0.345206053   0.344140762  -0.262812868
H        0.345206053  -0.344140762  -0.262812868
H        0.279310059   0.290283271   0.265599563
H        0.290283271   0.720689941   0.265599563
H        0.330058933   0.025315953   0.441279432
H       -0.472944936   0.290472689   0.087613647
H        0.472944936  -0.290472689   0.087613647
H       -0.474686931   0.169935543  -0.058727273
H        0.474686931  -0.169935543  -0.058727273
H        0.669941067   0.974684047   0.441279432
H        0.709716729   0.279310059   0.265599563
H        0.720689941   0.709716729   0.265599563
H        0.790490330   0.972926653   0.587610239
H        0.844130821   0.845206853   0.237165890
H        0.845206853   0.155869179   0.237165890
H        0.972926653   0.209509670   0.587610239
H        0.974684047   0.330058933   0.441279432
N        0.066052579   0.700000662   0.540362083
N        0.200001842   0.433969138   0.040380852
N       -0.200001842  -0.433969138   0.040380852
N        0.200453828   0.247353518   0.203597137
N       -0.200453828  -0.247353518   0.203597137
N        0.252652225   0.700436806   0.703615924
N       -0.247353518   0.200453828   0.203597137
N        0.247353518  -0.200453828   0.203597137
N        0.299563194   0.252652225   0.703615924
N        0.299999338   0.066052579   0.540362083
N        0.433969138  -0.200001842   0.040380852
N       -0.433969138   0.200001842   0.040380852
N        0.700000662   0.933947421   0.540362083
N        0.700436806   0.747347775   0.703615924
N        0.747347775   0.299563194   0.703615924
N        0.933947421   0.299999338   0.540362083
Ni       0.000000000   0.000000000   0.014530421
Ni       0.500000000   0.500000000   0.514486875
S        0.028505120   0.227882183  -0.031160929
S       -0.028505120  -0.227882183  -0.031160929
S        0.272104999   0.528509150   0.468818819
S       -0.227882183   0.028505120  -0.031160929
S        0.227882183  -0.028505120  -0.031160929
S        0.471490850   0.272104999   0.468818819
S        0.528509150   0.727895001   0.468818819
S        0.727895001   0.471490850   0.468818819

K_POINTS automatic
  3*4 3*1
