&control
    calculation       = 'relax'
    restart_mode      = 'from_scratch'
    prefix            = 'ec70.n8'
    tstress           = .true.
    tprnfor           = .true.
    wf_collect        = .false.
    verbosity         = 'high'
    pseudo_dir        = './pseudo/'
    outdir            = './scratch/'
/

&system
    ibrav             = 6

    a                 =  9.558
    c                 =  8.981

    ecutwfc           =  70
    ecutrho           = 700

    ntyp              =   6
    nat               =  70

    occupations       = 'smearing'
    smearing          = 'Fermi-Dirac'
    degauss           = 0.0036749326
/

&electrons
    conv_thr          = 1e-7
    mixing_beta       = 0.7
/
&ions
/
!&cell
!/

ATOMIC_SPECIES
H      1.0   H.pbe-kjpaw_psl.0.1.UPF
C      1.0   C.pbe-n-kjpaw_psl.0.1.UPF
N      1.0   N.pbe-n-kjpaw_psl.0.1.UPF
S      1.0   S.pbe-n-kjpaw_psl.0.1.UPF
Cl     1.0   Cl.pbe-n-kjpaw_psl.0.3.0.UPF
Ni     1.0   Ni.pbe-n-kjpaw_psl.0.1.UPF

ATOMIC_POSITIONS (crystal)
C  0.1545 0.3271  0.0948
C -0.1545 -0.3271 0.0948
C  0.1729 0.6545 0.5948
C -0.3271 0.1545 0.0948
C  0.3271 -0.1545 0.0948
C  0.3455 0.1729 0.5948
C  0.6545 0.8271 0.5948
C  0.8271 0.3455 0.5948
Cl 0.0000 0.0000 -0.2681
Cl 0.0000 0.0000 0.2791
Cl 0.5 0.5 0.2319
Cl 0.5 0.5 0.7791
H  0.0068 0.662 0.5258
H  0.0288 0.7644 0.4223
H  0.1620 0.4932  0.0258
H -0.1620  -0.4932 0.0258
H -0.1774  0.1786 -0.2250
H  0.1774 -0.1786 -0.2250
H  0.1786  0.1774 -0.2250
H -0.1786 -0.1774 -0.2250
H  0.2037 0.7684 0.2488
H  0.2316 0.2037 0.2488
H  0.2356 0.0288 0.4223
H  0.2644 0.4712 -0.0777
H -0.2644 -0.4712 -0.0777
H  0.2684  0.2963 -0.2512
H -0.2684 -0.2963 -0.2512
H -0.2963  0.2684 -0.2512
H  0.2963 -0.2684 -0.2512
H  0.3214  0.3226 0.275
H  0.3226  0.6786 0.275
H  0.3380  0.0068 0.5258
H -0.4712  0.2644 -0.0777
H  0.4712 -0.2644 -0.0777
H -0.4932 0.1620 0.0258
H  0.4932 -0.162 0.0258
H  0.6620 0.9932 0.5258
H  0.6774 0.3214 0.275
H  0.6786 0.6774 0.275
H  0.7644 0.9712 0.4223
H  0.7684 0.7963 0.2488
H  0.7963 0.2316 0.2488
H  0.9712 0.2356 0.4223
H  0.9932 0.3380 0.5258
N  0.043 0.6968 0.562
N  0.1968 0.4570  0.0620
N -0.1968 -0.457 0.0620
N  0.2071 0.2593  0.2104
N -0.2071 -0.2593 0.2104
N  0.2407 0.7071 0.7104
N -0.2593 0.2071 0.2104
N  0.2593 -0.2071 0.2104
N  0.2929 0.2407 0.7104
N 0.3032 0.043 0.562
N 0.4570 -0.1968 0.0620
N -0.457 0.1968 0.0620
N 0.6968 0.957 0.562
N 0.7071 0.7593 0.7104
N 0.7593 0.2929 0.7104
N 0.957 0.3032 0.562
Ni     0.0000 0.0000  0.0120
Ni 0.5 0.5 0.512
S      0.0285 0.2542 -0.0199
S -0.0285 -0.2542 -0.0199
S 0.2458 0.5285 0.4801
S -0.2542 0.0285 -0.0199
S 0.2542 -0.0285 -0.0199
S 0.4715 0.2458 0.4801
S 0.5285 0.7542 0.4801
S 0.7542 0.4715 0.4801

K_POINTS automatic
  3*4 3*1
