    &CONTROL 
calculation 	= 'scf'
prefix		= '1983-scf-kp4'
pseudo_dir 	= '../mn-pseudo'
outdir		= './scratch'
tstress		= .true.
tprnfor 	= .true.
!forc_conv_thr	= 1.0d-4
!nstep		= 200
/
    &SYSTEM 
ibrav		= 0
celldm(1)	= 1.889726
nat		= 84
ntyp		= 5 
ecutwfc		= 40
occupations 	= 'smearing'
smearing 	= 'Fermi-Dirac'
degauss 	= .0036749326

/ 
    &ELECTRONS
mixing_beta	= 0.7
conv_thr 	= 1.0d-7
electron_maxstep= 200
/
    &IONS
trust_radius_max= 0.2
/
    &CELL
cell_dynamics	= 'bfgs'
/
ATOMIC_SPECIES
  Cl  	35.4527 	Cl.pbe-n-van.UPF
  C  	12.0110  	C.pbe-van_bm.UPF
  Mn  	54.9380  	Mn.pbe-sp-van_mit.UPF
  H   	1.0079  	H.pbe-van_bm.UPF
  N  	14.0067  	N.pbe-van_bm.UPF

CELL_PARAMETERS (alat) 
   7.2090000000    0.0000000000    0.0000000000
   0.0000000000    7.2720000000    0.0000000000
   0.0000000000    0.0000000000   19.4020000000

ATOMIC_POSITIONS (crystal)
Cl       0.250000000     0.250000000     0.010280000
Cl       0.000000000     0.965600000     0.127510000
 N       0.500000000    -0.016900000     0.115700000
 C       0.500000000     0.033000000     0.187500000
 H       0.500000000    -0.134000000     0.104000000
 H       0.561000000     0.032000000     0.101000000
 H       0.500000000     0.129000000     0.201000000
 H       0.418000000    -0.036000000     0.209000000
Mn       0.000000000     0.000000000     0.000000000
Mn       0.500000000     0.500000000     0.000000000
 H       0.439000000     0.032000000     0.101000000
 H       0.582000000    -0.036000000     0.209000000
Cl       0.750000000     0.250000000     0.010280000
Cl       0.750000000     0.750000000     0.989720000
Cl       0.250000000     0.750000000     0.989720000
Cl       0.000000000     0.034400000     0.872490000
 H       0.418000000     0.464000000     0.291000000
 H       0.561000000     0.532000000     0.399000000
 H       0.582000000     0.464000000     0.291000000
 H       0.500000000     0.629000000     0.299000000
 H       0.439000000     0.532000000     0.399000000
 H       0.500000000     0.366000000     0.396000000
 C       0.500000000     0.533000000     0.312500000
 N       0.500000000     0.483100000     0.384300000
 H      -0.082000000     0.464000000     0.791000000
 H       0.061000000     0.532000000     0.899000000
 H       0.082000000     0.464000000     0.791000000
 H       0.000000000     0.629000000     0.799000000
 H      -0.061000000     0.532000000     0.899000000
 H       0.000000000     0.366000000     0.896000000
 C       0.000000000     0.533000000     0.812500000
 N       0.000000000     0.483100000     0.884300000
 H      -0.082000000     1.036000000     0.291000000
 H       0.061000000     0.968000000     0.399000000
 H       0.082000000     1.036000000     0.291000000
 H       0.000000000     0.871000000     0.299000000
 H      -0.061000000     0.968000000     0.399000000
 H       0.000000000     1.134000000     0.396000000
 C       0.000000000     0.967000000     0.312500000
 N       0.000000000     1.016900000     0.384300000
 H       0.418000000     1.036000000     0.791000000
 H       0.561000000     0.968000000     0.899000000
 H       0.582000000     1.036000000     0.791000000
 H       0.500000000     0.871000000     0.799000000
 H       0.439000000     0.968000000     0.899000000
 H       0.500000000     1.134000000     0.896000000
 C       0.500000000     0.967000000     0.812500000
 N       0.500000000     1.016900000     0.884300000
Cl       0.000000000     0.465600000     0.372490000
 H       0.582000000     0.536000000     0.709000000
 H       0.439000000     0.468000000     0.601000000
 H       0.418000000     0.536000000     0.709000000
 H       0.500000000     0.371000000     0.701000000
 H       0.561000000     0.468000000     0.601000000
 H       0.500000000     0.634000000     0.604000000
 C       0.500000000     0.467000000     0.687500000
 N       0.500000000     0.516900000     0.615700000
Cl       0.000000000     0.534400000     0.627510000
Cl       0.500000000     0.465600000     0.872490000
 H       0.082000000     0.536000000     0.209000000
 H      -0.061000000     0.468000000     0.101000000
 H      -0.082000000     0.536000000     0.209000000
 H       0.000000000     0.371000000     0.201000000
 H       0.061000000     0.468000000     0.101000000
 H       0.000000000     0.634000000     0.104000000
 C       0.000000000     0.467000000     0.187500000
 N       0.000000000     0.516900000     0.115700000
Cl       0.500000000     0.534400000     0.127510000
Cl       0.500000000     0.034400000     0.372490000
Cl       0.750000000     0.750000000     0.489720000
Cl       0.250000000     0.750000000     0.489720000
Cl       0.250000000     0.250000000     0.510280000
 H       0.082000000    -0.036000000     0.709000000
 H      -0.061000000     0.032000000     0.601000000
Mn       0.000000000     0.500000000     0.500000000
Mn       0.500000000     0.000000000     0.500000000
 H      -0.082000000    -0.036000000     0.709000000
 H       0.000000000     0.129000000     0.701000000
 H       0.061000000     0.032000000     0.601000000
 H       0.000000000    -0.134000000     0.604000000
 C       0.000000000     0.033000000     0.687500000
 N       0.000000000    -0.016900000     0.615700000
Cl       0.500000000     0.965600000     0.627510000
Cl       0.750000000     0.250000000     0.510280000
K_POINTS automatic
 4 4 4  1 1 1 
