    &CONTROL 
calculation = 'scf'
prefix='model'
pseudo_dir = './'
outdir='./'
tstress=.true.
tprnfor = .true.
forc_conv_thr=1.0d-4
nstep=200
/
    &SYSTEM 
ibrav=0
celldm(1)=1.889726
nat=5
ntyp=5 
ecutwfc=36
/ 
    &ELECTRONS
mixing_beta=0.7
conv_thr =  1.0d-8
electron_maxstep=200
/
    &IONS
trust_radius_max=0.2
/
    &CELL
cell_dynamics='bfgs'
/
ATOMIC_SPECIES
  Cl3  35.4527  Cl3.UPF
  Pb2  207.2000  Pb2.UPF
  Cl4  35.4527  Cl4.UPF
  Cl5  35.4527  Cl5.UPF
  Cs1  132.9054  Cs1.UPF

CELL_PARAMETERS (alat) 
   5.7339237800    0.0000000000    0.0000000000
   0.0000000000    5.7339237800    0.0000000000
   0.0000000000    0.0000000000    5.7339237800

ATOMIC_POSITIONS (crystal)
Cs       0.000000000     0.000000000     0.000000000
Pb       0.500000000     0.500000000     0.500000000
Cl       0.000000000     0.500000000     0.500000000
Cl       0.500000000     0.000000000     0.500000000
Cl       0.500000000     0.500000000     0.000000000
K_POINTS {automatic}
 4 4 4  1 1 1 
