    &CONTROL 
calculation = 'scf'
prefix='ab1477_structure_1_of_1'
pseudo_dir = './'
outdir='./'
tstress=.true.
tprnfor = .true.
forc_conv_thr=1.0d-4
nstep=200
/
    &SYSTEM 
ibrav=0
celldm(1)=1.889726
nat=12
ntyp=6 
ecutwfc=36
/ 
    &ELECTRONS
mixing_beta=0.7
conv_thr =  1.0d-8
electron_maxstep=200
/
    &IONS
trust_radius_max=0.2
/
    &CELL
cell_dynamics='bfgs'
/
ATOMIC_SPECIES
  C   12.0110  C.UPF
  Cl  35.4527  Cl.UPF
  H    1.0079  H.UPF

CELL_PARAMETERS (angstrom) 
   5.000000000    0.0000000000    0.0000000000
   0.000000000    5.0000000000    0.0000000000
   0.000000000    0.0000000000    5.0000000000

ATOMIC_POSITIONS (angstrom)
C   -0.00010575    -1.37946692    -0.03019728
C    0.99117035    -0.71237884     0.68688617
C    0.99143947     0.68108278     0.71760979
C    0.00010575     1.37946692     0.03019728
C   -0.99117035     0.71237884    -0.68688617
C   -0.99143947    -0.68108278    -0.71760979
H    1.75721806    -1.26892138     1.22371877
H    1.75834032     1.21080274     1.27975281
H   -1.75721806     1.26892138    -1.22371877
H   -1.75834032    -1.21080274    -1.27975281
Cl  -0.00058766    -3.12407763    -0.06916444
Cl   0.00058766     3.12407763     0.06916444

K_POINTS {automatic}
 4 4 4  1 1 1 


