    &CONTROL 
calculation = 'scf'
prefix='ab1477_structure_1_of_1'
pseudo_dir = './'
outdir='./'
tstress=.true.
tprnfor = .true.
forc_conv_thr=1.0d-4
nstep=200
/
    &SYSTEM 
ibrav=0
celldm(1)=1.889726
nat=12
ntyp=6 
ecutwfc=36
/ 
    &ELECTRONS
mixing_beta=0.7
conv_thr =  1.0d-8
electron_maxstep=200
/
    &IONS
trust_radius_max=0.2
/
    &CELL
cell_dynamics='bfgs'
/
ATOMIC_SPECIES
  C   12.0110  C.UPF
  Cl  35.4527  Cl.UPF
  H    1.0079  H.UPF

CELL_PARAMETERS (angstrom) 
  20.000000000    0.0000000000    0.0000000000
   0.000000000   20.0000000000    0.0000000000
   0.000000000    0.0000000000   20.0000000000

ATOMIC_POSITIONS (angstrom)
C     13.92326952      8.62053308      2.35317174
C     15.14666376      9.28762116      2.36515084
C     15.16464631     10.68108278      2.39006352
C     13.9583594      11.37946692      2.40232709
C     12.73496515     10.71237884      2.39034798
C     12.71698261      9.31891722      2.36543531
H     16.0820752       8.73107862      2.36027472
H     16.11538715     11.21080274      2.40534564
H     11.79955371     11.26892138      2.3952241 
H     11.76624177      8.78919726      2.35015319
Cl    13.90034732      6.87592237      2.32165595
Cl    13.98128159     13.12407763      2.43384287


K_POINTS {automatic}
 4 4 4  1 1 1 

