    &CONTROL 
calculation = 'scf'
prefix='tcb_alpha_150K_X-ray'
pseudo_dir = './'
outdir='./'
tstress=.true.
tprnfor = .true.
forc_conv_thr=1.0d-4
nstep=200
/
    &SYSTEM 
ibrav=0
celldm(1)=1.889726
nat=24
ntyp=12 
ecutwfc=36
/ 
    &ELECTRONS
mixing_beta=0.7
conv_thr =  1.0d-8
electron_maxstep=200
/
    &IONS
trust_radius_max=0.2
/
    &CELL
cell_dynamics='bfgs'
/
ATOMIC_SPECIES
  C1  12.0110  C1.UPF
  C2  12.0110  C2.UPF
  C3  12.0110  C3.UPF
  H3A   1.0079  H3A.UPF
  C4  12.0110  C4.UPF
  C5  12.0110  C5.UPF
  C6  12.0110  C6.UPF
  H6A   1.0079  H6A.UPF
  Cl1  35.4527  Cl1.UPF
  Cl2  35.4527  Cl2.UPF
  Cl4  35.4527  Cl4.UPF
  Cl5  35.4527  Cl5.UPF

CELL_PARAMETERS (alat) 
   3.8016000000    0.0000000000    0.0000000000
  -1.2078203021   10.5681035067    0.0000000000
  -1.4784707813   -0.5141973364    9.3565647974

ATOMIC_POSITIONS (crystal)
 C       0.077900000     0.466990000     0.366150000
Cl       0.170100000     0.426990000     0.199050000
 C       0.016000000     0.373960000     0.462850000
Cl       0.040350000     0.216510000     0.418600000
 C       0.062400000     0.593240000     0.404400000
 H       0.105600000     0.656900000     0.339400000
 C       0.434200000    -0.029260000     0.135910000
Cl       0.347620000    -0.063630000     0.304470000
 C       0.516100000    -0.122450000     0.043470000
Cl       0.536800000    -0.276000000     0.095270000
 C       0.418400000     0.093670000     0.091920000
 H       0.362900000     0.157600000     0.154600000
 H       0.637100000    -0.157600000    -0.154600000
 C       0.581600000    -0.093670000    -0.091920000
Cl       0.463200000     0.276000000    -0.095270000
 C       0.483900000     0.122450000    -0.043470000
Cl       0.652380000     0.063630000    -0.304470000
 C       0.565800000     0.029260000    -0.135910000
 H      -0.105600000     0.343100000     0.660600000
 C      -0.062400000     0.406760000     0.595600000
Cl      -0.040350000     0.783490000     0.581400000
 C      -0.016000000     0.626040000     0.537150000
Cl      -0.170100000     0.573010000     0.800950000
 C      -0.077900000     0.533010000     0.633850000
K_POINTS {automatic}
 4 4 4  1 1 1 
