    &CONTROL 
calculation = 'scf'
prefix='thiourea-scf-ecwfc50'
pseudo_dir = './pseudo'
outdir='./scratch'
tstress=.true.
tprnfor = .true.
forc_conv_thr=1.0d-4
nstep=200
/
    &SYSTEM 
ibrav=0
celldm(1)=1.889726
nat=8
ntyp=4 
ecutwfc=50
/ 
    &ELECTRONS
mixing_beta=0.7
conv_thr =  1.0d-8
electron_maxstep=200
/
    &IONS
trust_radius_max=0.2
/
    &CELL
cell_dynamics='bfgs'
/
ATOMIC_SPECIES
   C  12.0110  	C.pbe-n-kjpaw_psl.0.1.UPF
   S  32.0660 	S.pbe-n-kjpaw_psl.0.1.UPF
   N  14.0067  	N.pbe-n-kjpaw_psl.0.1.UPF
   H   1.0079  	H.pbe-kjpaw_psl.0.1.UPF
 

CELL_PARAMETERS (alat) 
   0.9999999134    0.0000000000    0.0000000000
   0.0000000000    0.9999999134    0.0000000000
   0.0000000000    0.0000000000    0.9999999134

ATOMIC_POSITIONS (crystal)
 S       0.081300000     0.000000000     0.000000000
 N       0.745700000     0.098500000     0.155000000
 N       0.745700000     0.901500000     0.845000000
 C       0.379700000     0.000000000     0.000000000
 H       0.210900000     0.908500000     0.201300000
 H       0.812900000     0.097300000     0.227000000
 H       0.210900000     0.091500000     0.798700000
 H       0.812900000     0.902700000     0.773000000
K_POINTS automatic
 4 4 4  1 1 1 

