
    &CONTROL
calculation  = 'scf'
restart_mode = 'from_scratch'
prefix       ='scf-743'
pseudo_dir   ='/global/cscratch1/sd/almno10/.data/PSEUDOPOTENTIALS'
outdir       ='./scratch'
dt           = 160
tstress      =.false.
tprnfor      =.true.
!forc_conv_thr=1.0d-4
verbosity    = 'high'
nstep        = 2000
/

&system
    ibrav=0
    celldm(1)=1.889726
    nat=24
    ntyp=3
    ecutwfc=100
    ecutrho=1000
!   spline_ps=.true.
!   nosym=.true.
/

&electrons

    electron_maxstep  = 200
!   scf_must_converge = .true.
    conv_thr          = 1e-7
!   adaptive_thr      = 1.D-6
!   conv_thr_init     = 1.D-3

    mixing_mode       = 'plain'
    mixing_beta       = 0.7
!   mixing_ndim       = 8
!   mixing_fixed_ns   = 0
!
    diagonalization   = 'david'
!   ortho_para        = 0
    diago_thr_init    = 1.D-4
!   diago_cg_maxiter  = 2?
!   diago_david_ndim  = 4
!   diago_full_ac     = .false.
!
!
!   efield            = 0.D0
!   efield_cart(i)    = (0.D0, 0.D0, 0.D0) ! need lelfield=.true., K_POINTS automatic
!   startingpot       = 'atomic'
!   startingwfc       = 'atomic+random'
!   tqr               = .false.
!
/


&ions
!   ion_dynamics      = 'verlet'
!   ion_positions     = 'default'
!   pot_extrapolation = 'atomic'
!   wfc_extrapolation = 'none'
!   remove_rigid_rot  = .false.
!
!-------------------------------------------
!    !!!Molecular Dynamics only!!!         -
!-------------------------------------------
    ion_temperature   = 'initial'
    tempw             = 586.D0
    tolp              = 100.D0
    delta_t           = 1.D0
    nraise            = 1
!    refold_pos
!------------------------------------------
!    !!!BFGS only!!!
!------------------------------------------
!   upscale           = 100.D0
!   bfgs_ndim         = 1
!   trust_radius_max  = 0.8D0
!   trust_radius_min  = 1.D-3
!   trust_radius_ini  = 0.5D0

!   w_1               = 0.01D0
!   w_2               = 0.5D0
!-------------------------------------------

/

&cell
!
    cell_dynamics     = 'bfgs'
!   press             = 0.D0
!   wmass             = !! fictitious cell mass
!                default:0.75*Tot_Mass/pi**2 for Parrinello-Rahman MD; 0.75*Tot_Mass/pi**2/Omega**(2/3) for Wentzcovitch MD
!   cell_factor       = 1.2D0
!   press_conv_thr    = 0.5D0
!   cell_dofree       = 'all'
/

ATOMIC_SPECIES
C    12.0110   C.pbe-n-kjpaw_psl.1.0.0.UPF
Cl   35.4527  Cl.pbe-n-kjpaw_psl.1.0.0.UPF
H    1.0079    H.pbe-kjpaw_psl.1.0.0.UPF

CELL_PARAMETERS (alat)
  14.7620000000    0.0000000000    0.0000000000
   0.0000000000    5.8320000000    0.0000000000
  -1.5638756447    0.0000000000    3.7239513917

ATOMIC_POSITIONS (crystal)
Cl       1.150363239   0.088072317   0.469410623
C        1.061878142   0.305695305   0.497110274
C        1.096964261   0.504866877   0.696627643
H        1.174757595   0.547734625   0.817601724
C        1.026739050   0.667881938   0.684733966
H        1.049430992   0.826705786   0.836077157
H        0.455569832   0.382622683   0.079474385
C        0.476015085   0.232617607   0.252633167
H        0.329706895   0.090476839   0.041974653
C        0.404817089   0.070709196   0.236557199
C        0.430797843  -0.122591779   0.456716388
Cl       0.341112648  -0.305700802   0.430525585
H        0.937276247   0.106025167   0.172548455
C        0.961375980   0.264143607   0.324446428
H        0.814043097   0.385898671   0.201832879
C        0.892017487   0.421754667   0.339765590
C        0.926536589   0.618696152   0.533438299
Cl       0.844595357   0.821646488   0.557839910
H        0.547254201  -0.304671042   0.878952337
C        0.527293493  -0.157627987   0.698671878
H        0.672202689  -0.009787975   0.918897881
C        0.596538515   0.012372881   0.731617460
C        0.571490480   0.201582756   0.503543833
Cl       0.673819379   0.388461045   0.558673867


K_POINTS automatic
2 4 4 1 1 1
