
    &CONTROL
calculation  = 'scf'
restart_mode = 'from_scratch'
prefix       ='scf-2168'
pseudo_dir   ='/global/cscratch1/sd/almno10/.data/PSEUDOPOTENTIALS'
outdir       ='./scratch'
dt           = 160
tstress      =.false.
tprnfor      =.true.
!forc_conv_thr=1.0d-4
verbosity    = 'high'
nstep        = 2000
/

&system
    ibrav=0
    celldm(1)=1.889726
    nat=24
    ntyp=3
    ecutwfc=100
    ecutrho=1000
!   spline_ps=.true.
!   nosym=.true.
/

&electrons

    electron_maxstep  = 200
!   scf_must_converge = .true.
    conv_thr          = 1e-7
!   adaptive_thr      = 1.D-6
!   conv_thr_init     = 1.D-3

    mixing_mode       = 'plain'
    mixing_beta       = 0.7
!   mixing_ndim       = 8
!   mixing_fixed_ns   = 0
!
    diagonalization   = 'david'
!   ortho_para        = 0
    diago_thr_init    = 1.D-4
!   diago_cg_maxiter  = 2?
!   diago_david_ndim  = 4
!   diago_full_ac     = .false.
!
!
!   efield            = 0.D0
!   efield_cart(i)    = (0.D0, 0.D0, 0.D0) ! need lelfield=.true., K_POINTS automatic
!   startingpot       = 'atomic'
!   startingwfc       = 'atomic+random'
!   tqr               = .false.
!
/


&ions
!   ion_dynamics      = 'verlet'
!   ion_positions     = 'default'
!   pot_extrapolation = 'atomic'
!   wfc_extrapolation = 'none'
!   remove_rigid_rot  = .false.
!
!-------------------------------------------
!    !!!Molecular Dynamics only!!!         -
!-------------------------------------------
    ion_temperature   = 'initial'
    tempw             = 586.D0
    tolp              = 100.D0
    delta_t           = 1.D0
    nraise            = 1
!    refold_pos
!------------------------------------------
!    !!!BFGS only!!!
!------------------------------------------
!   upscale           = 100.D0
!   bfgs_ndim         = 1
!   trust_radius_max  = 0.8D0
!   trust_radius_min  = 1.D-3
!   trust_radius_ini  = 0.5D0

!   w_1               = 0.01D0
!   w_2               = 0.5D0
!-------------------------------------------

/

&cell
!
    cell_dynamics     = 'bfgs'
!   press             = 0.D0
!   wmass             = !! fictitious cell mass
!                default:0.75*Tot_Mass/pi**2 for Parrinello-Rahman MD; 0.75*Tot_Mass/pi**2/Omega**(2/3) for Wentzcovitch MD
!   cell_factor       = 1.2D0
!   press_conv_thr    = 0.5D0
!   cell_dofree       = 'all'
/

ATOMIC_SPECIES
C    12.0110   C.pbe-n-kjpaw_psl.1.0.0.UPF
Cl   35.4527  Cl.pbe-n-kjpaw_psl.1.0.0.UPF
H    1.0079    H.pbe-kjpaw_psl.1.0.0.UPF

CELL_PARAMETERS (alat)
  14.7620000000    0.0000000000    0.0000000000
   0.0000000000    5.8320000000    0.0000000000
  -1.5638756447    0.0000000000    3.7239513917

ATOMIC_POSITIONS (crystal)
Cl       1.160605624   0.097428748   0.547650207
C        1.069579854   0.311219151   0.546664572
C        1.095036353   0.518741981   0.731129943
H        1.170616542   0.577459463   0.863556675
C        1.017660379   0.662424102   0.711415099
H        1.032916576   0.826382551   0.851217951
H        0.457905068   0.431844568   0.138139849
C        0.477248802   0.266126284   0.270637216
H        0.327064575   0.174324080   0.165472941
C        0.403832350   0.123678963   0.292990155
C        0.431633270  -0.087736262   0.463108819
Cl       0.350915570  -0.290434256   0.499271284
H        0.955271510   0.093626768   0.200046414
C        0.971588872   0.252111766   0.354371792
H        0.819255959   0.345290334   0.194542392
C        0.895164951   0.394801571   0.347705058
C        0.920024879   0.592820311   0.545547700
Cl       0.833133208   0.758738466   0.590799817
H        0.548310765  -0.329253996   0.715441813
C        0.529392789  -0.159364930   0.596914142
H        0.679079234  -0.071443976   0.690030902
C        0.602977661  -0.014328319   0.583779293
C        0.575720987   0.202187579   0.431673174
Cl       0.659052881   0.411659831   0.409471330


K_POINTS automatic
2 4 4 1 1 1
