
    &CONTROL
calculation  = 'scf'
restart_mode = 'from_scratch'
prefix       ='scf-2347'
pseudo_dir   ='/global/cscratch1/sd/almno10/.data/PSEUDOPOTENTIALS'
outdir       ='./scratch'
dt           = 160
tstress      =.false.
tprnfor      =.true.
!forc_conv_thr=1.0d-4
verbosity    = 'high'
nstep        = 2000
/

&system
    ibrav=0
    celldm(1)=1.889726
    nat=24
    ntyp=3
    ecutwfc=100
    ecutrho=1000
!   spline_ps=.true.
!   nosym=.true.
/

&electrons

    electron_maxstep  = 200
!   scf_must_converge = .true.
    conv_thr          = 1e-7
!   adaptive_thr      = 1.D-6
!   conv_thr_init     = 1.D-3

    mixing_mode       = 'plain'
    mixing_beta       = 0.7
!   mixing_ndim       = 8
!   mixing_fixed_ns   = 0
!
    diagonalization   = 'david'
!   ortho_para        = 0
    diago_thr_init    = 1.D-4
!   diago_cg_maxiter  = 2?
!   diago_david_ndim  = 4
!   diago_full_ac     = .false.
!
!
!   efield            = 0.D0
!   efield_cart(i)    = (0.D0, 0.D0, 0.D0) ! need lelfield=.true., K_POINTS automatic
!   startingpot       = 'atomic'
!   startingwfc       = 'atomic+random'
!   tqr               = .false.
!
/


&ions
!   ion_dynamics      = 'verlet'
!   ion_positions     = 'default'
!   pot_extrapolation = 'atomic'
!   wfc_extrapolation = 'none'
!   remove_rigid_rot  = .false.
!
!-------------------------------------------
!    !!!Molecular Dynamics only!!!         -
!-------------------------------------------
    ion_temperature   = 'initial'
    tempw             = 586.D0
    tolp              = 100.D0
    delta_t           = 1.D0
    nraise            = 1
!    refold_pos
!------------------------------------------
!    !!!BFGS only!!!
!------------------------------------------
!   upscale           = 100.D0
!   bfgs_ndim         = 1
!   trust_radius_max  = 0.8D0
!   trust_radius_min  = 1.D-3
!   trust_radius_ini  = 0.5D0

!   w_1               = 0.01D0
!   w_2               = 0.5D0
!-------------------------------------------

/

&cell
!
    cell_dynamics     = 'bfgs'
!   press             = 0.D0
!   wmass             = !! fictitious cell mass
!                default:0.75*Tot_Mass/pi**2 for Parrinello-Rahman MD; 0.75*Tot_Mass/pi**2/Omega**(2/3) for Wentzcovitch MD
!   cell_factor       = 1.2D0
!   press_conv_thr    = 0.5D0
!   cell_dofree       = 'all'
/

ATOMIC_SPECIES
C    12.0110   C.pbe-n-kjpaw_psl.1.0.0.UPF
Cl   35.4527  Cl.pbe-n-kjpaw_psl.1.0.0.UPF
H    1.0079    H.pbe-kjpaw_psl.1.0.0.UPF

CELL_PARAMETERS (alat)
  14.7620000000    0.0000000000    0.0000000000
   0.0000000000    5.8320000000    0.0000000000
  -1.5638756447    0.0000000000    3.7239513917

ATOMIC_POSITIONS (crystal)
Cl       1.164173074   0.108140675   0.462322129
C        1.079889518   0.290357701   0.462250189
C        1.113060939   0.481872311   0.683008092
H        1.190483703   0.497080668   0.857092898
C        1.044748309   0.633321627   0.721532958
H        1.069850909   0.782870727   0.894463930
H        0.438545217   0.397114470   0.125394606
C        0.461500660   0.241344041   0.284423292
H        0.314611022   0.105112032   0.115057269
C        0.391041664   0.085994472   0.297567815
C        0.420735351  -0.113950990   0.499937901
Cl       0.329784639  -0.295376120   0.532076976
H        0.954993623   0.105866503   0.089158206
C        0.979974365   0.253473840   0.266257026
H        0.834615696   0.394861973   0.116924636
C        0.912770048   0.420712185   0.269478745
C        0.946013936   0.609714093   0.496664666
Cl       0.844542526   0.809940698   0.470363456
H        0.540528507  -0.293971207   0.913309934
C        0.517969883  -0.145567534   0.736584396
H        0.663430702  -0.000003990   0.927925683
C        0.587088894   0.019610290   0.745129359
C        0.558697573   0.210671292   0.521202023
Cl       0.656728412   0.381826228   0.539527668


K_POINTS automatic
2 4 4 1 1 1
