
    &CONTROL
calculation  = 'scf'
restart_mode = 'from_scratch'
prefix       ='scf-181'
pseudo_dir   ='/global/cscratch1/sd/almno10/.data/PSEUDOPOTENTIALS'
outdir       ='./scratch'
dt           = 160
tstress      =.false.
tprnfor      =.true.
!forc_conv_thr=1.0d-4
verbosity    = 'high'
nstep        = 2000
/

&system
    ibrav=0
    celldm(1)=1.889726
    nat=24
    ntyp=3
    ecutwfc=100
    ecutrho=1000
!   spline_ps=.true.
!   nosym=.true.
/

&electrons

    electron_maxstep  = 200
!   scf_must_converge = .true.
    conv_thr          = 1e-7
!   adaptive_thr      = 1.D-6
!   conv_thr_init     = 1.D-3

    mixing_mode       = 'plain'
    mixing_beta       = 0.7
!   mixing_ndim       = 8
!   mixing_fixed_ns   = 0
!
    diagonalization   = 'david'
!   ortho_para        = 0
    diago_thr_init    = 1.D-4
!   diago_cg_maxiter  = 2?
!   diago_david_ndim  = 4
!   diago_full_ac     = .false.
!
!
!   efield            = 0.D0
!   efield_cart(i)    = (0.D0, 0.D0, 0.D0) ! need lelfield=.true., K_POINTS automatic
!   startingpot       = 'atomic'
!   startingwfc       = 'atomic+random'
!   tqr               = .false.
!
/


&ions
!   ion_dynamics      = 'verlet'
!   ion_positions     = 'default'
!   pot_extrapolation = 'atomic'
!   wfc_extrapolation = 'none'
!   remove_rigid_rot  = .false.
!
!-------------------------------------------
!    !!!Molecular Dynamics only!!!         -
!-------------------------------------------
    ion_temperature   = 'initial'
    tempw             = 586.D0
    tolp              = 100.D0
    delta_t           = 1.D0
    nraise            = 1
!    refold_pos
!------------------------------------------
!    !!!BFGS only!!!
!------------------------------------------
!   upscale           = 100.D0
!   bfgs_ndim         = 1
!   trust_radius_max  = 0.8D0
!   trust_radius_min  = 1.D-3
!   trust_radius_ini  = 0.5D0

!   w_1               = 0.01D0
!   w_2               = 0.5D0
!-------------------------------------------

/

&cell
!
    cell_dynamics     = 'bfgs'
!   press             = 0.D0
!   wmass             = !! fictitious cell mass
!                default:0.75*Tot_Mass/pi**2 for Parrinello-Rahman MD; 0.75*Tot_Mass/pi**2/Omega**(2/3) for Wentzcovitch MD
!   cell_factor       = 1.2D0
!   press_conv_thr    = 0.5D0
!   cell_dofree       = 'all'
/

ATOMIC_SPECIES
C    12.0110   C.pbe-n-kjpaw_psl.1.0.0.UPF
Cl   35.4527  Cl.pbe-n-kjpaw_psl.1.0.0.UPF
H    1.0079    H.pbe-kjpaw_psl.1.0.0.UPF

CELL_PARAMETERS (alat)
  14.7620000000    0.0000000000    0.0000000000
   0.0000000000    5.8320000000    0.0000000000
  -1.5638756447    0.0000000000    3.7239513917

ATOMIC_POSITIONS (crystal)
Cl       1.151579162   0.180762609   0.376915583
C        1.073191090   0.361501065   0.471099855
C        1.098340921   0.582604909   0.606568841
H        1.173227162   0.644476333   0.680905223
C        1.026729649   0.726599913   0.638258160
H        1.046392447   0.899064936   0.745523348
H        0.464783282   0.339685506   0.119196872
C        0.480277959   0.191064613   0.295607335
H        0.328310991   0.088996861   0.114588719
C        0.404041758   0.045290350   0.282165753
C        0.427662957  -0.143452375   0.511948903
Cl       0.337388893  -0.345195865   0.504879436
H        0.957882305   0.108407909   0.255740535
C        0.976788183   0.281950053   0.358181064
H        0.830898625   0.360742567   0.325492462
C        0.906483820   0.419513112   0.412886929
C        0.931423338   0.643116121   0.542972838
Cl       0.841659618   0.825756241   0.592152658
H        0.540720544  -0.347048370   0.898029329
C        0.525028047  -0.197580732   0.723197677
H        0.676886735  -0.096432323   0.901370315
C        0.601222380  -0.052705361   0.734429861
C        0.577576572   0.137196907   0.507251241
Cl       0.659083420   0.340397455   0.496240172


K_POINTS automatic
2 4 4 1 1 1
