
    &CONTROL
calculation  = 'scf'
restart_mode = 'from_scratch'
prefix       ='scf-2445'
pseudo_dir   ='/global/cscratch1/sd/almno10/.data/PSEUDOPOTENTIALS'
outdir       ='./scratch'
dt           = 160
tstress      =.false.
tprnfor      =.true.
!forc_conv_thr=1.0d-4
verbosity    = 'high'
nstep        = 2000
/

&system
    ibrav=0
    celldm(1)=1.889726
    nat=24
    ntyp=3
    ecutwfc=100
    ecutrho=1000
!   spline_ps=.true.
!   nosym=.true.
/

&electrons

    electron_maxstep  = 200
!   scf_must_converge = .true.
    conv_thr          = 1e-7
!   adaptive_thr      = 1.D-6
!   conv_thr_init     = 1.D-3

    mixing_mode       = 'plain'
    mixing_beta       = 0.7
!   mixing_ndim       = 8
!   mixing_fixed_ns   = 0
!
    diagonalization   = 'david'
!   ortho_para        = 0
    diago_thr_init    = 1.D-4
!   diago_cg_maxiter  = 2?
!   diago_david_ndim  = 4
!   diago_full_ac     = .false.
!
!
!   efield            = 0.D0
!   efield_cart(i)    = (0.D0, 0.D0, 0.D0) ! need lelfield=.true., K_POINTS automatic
!   startingpot       = 'atomic'
!   startingwfc       = 'atomic+random'
!   tqr               = .false.
!
/


&ions
!   ion_dynamics      = 'verlet'
!   ion_positions     = 'default'
!   pot_extrapolation = 'atomic'
!   wfc_extrapolation = 'none'
!   remove_rigid_rot  = .false.
!
!-------------------------------------------
!    !!!Molecular Dynamics only!!!         -
!-------------------------------------------
    ion_temperature   = 'initial'
    tempw             = 586.D0
    tolp              = 100.D0
    delta_t           = 1.D0
    nraise            = 1
!    refold_pos
!------------------------------------------
!    !!!BFGS only!!!
!------------------------------------------
!   upscale           = 100.D0
!   bfgs_ndim         = 1
!   trust_radius_max  = 0.8D0
!   trust_radius_min  = 1.D-3
!   trust_radius_ini  = 0.5D0

!   w_1               = 0.01D0
!   w_2               = 0.5D0
!-------------------------------------------

/

&cell
!
    cell_dynamics     = 'bfgs'
!   press             = 0.D0
!   wmass             = !! fictitious cell mass
!                default:0.75*Tot_Mass/pi**2 for Parrinello-Rahman MD; 0.75*Tot_Mass/pi**2/Omega**(2/3) for Wentzcovitch MD
!   cell_factor       = 1.2D0
!   press_conv_thr    = 0.5D0
!   cell_dofree       = 'all'
/

ATOMIC_SPECIES
C    12.0110   C.pbe-n-kjpaw_psl.1.0.0.UPF
Cl   35.4527  Cl.pbe-n-kjpaw_psl.1.0.0.UPF
H    1.0079    H.pbe-kjpaw_psl.1.0.0.UPF

CELL_PARAMETERS (alat)
  14.7620000000    0.0000000000    0.0000000000
   0.0000000000    5.8320000000    0.0000000000
  -1.5638756447    0.0000000000    3.7239513917

ATOMIC_POSITIONS (crystal)
Cl       1.145694522   0.166524606   0.423414160
C        1.065096639   0.368428846   0.421297030
C        1.099639063   0.548145549   0.665861809
H        1.176985601   0.560652918   0.841957608
C        1.032398485   0.705861369   0.696878877
H        1.057931283   0.846780814   0.887490306
H        0.468328821   0.342407829   0.221385220
C        0.484355210   0.185654075   0.379755590
H        0.331760427   0.097818698   0.233043107
C        0.407667204   0.042846892   0.371736831
C        0.429194244  -0.158221885   0.574343799
Cl       0.331856272  -0.324133933   0.570265924
H        0.939347788   0.201881796   0.022920257
C        0.965377239   0.345196039   0.208439202
H        0.820792795   0.489066031   0.068410398
C        0.898668471   0.505995681   0.234950431
C        0.933398317   0.688406411   0.471884751
Cl       0.834563303   0.892279175   0.479352288
H        0.542306555  -0.392071808   0.904138478
C        0.525926201  -0.231119087   0.755910478
H        0.678161446  -0.148779149   0.886906803
C        0.602324964  -0.094830264   0.745716057
C        0.580952395   0.111562331   0.557276344
Cl       0.678972782   0.259320791   0.496608459


K_POINTS automatic
2 4 4 1 1 1
