    &CONTROL 
calculation = 'scf'
prefix='gr0219a'
pseudo_dir = './'
outdir='./'
tstress=.true.
tprnfor = .true.
forc_conv_thr=1.0d-4
nstep=200
/
    &SYSTEM 
ibrav=0
celldm(1)=1.889726
nat=44
ntyp=3 
ecutwfc=36
/ 
    &ELECTRONS
mixing_beta=0.7
conv_thr =  1.0d-8
electron_maxstep=200
/
    &IONS
trust_radius_max=0.2
/
    &CELL
cell_dynamics='bfgs'
/
ATOMIC_SPECIES
   C  12.0110   C.UPF
   N  14.0067   N.UPF
   H   1.0079   H.UPF

CELL_PARAMETERS (alat) 
   7.0280000000    0.0000000000    0.0000000000
   0.0000000000    7.0280000000    0.0000000000
   0.0000000000    0.0000000000    7.0280000000

ATOMIC_POSITIONS (crystal)
 C       0.237900000     0.000000000     0.000000000
 N       0.122200000     0.122200000     0.122200000
 H       0.322900000    -0.089400000     0.089400000
 H       0.410600000     0.410600000     0.177100000
 H       0.410600000     0.822900000     0.589400000
 H       0.589400000     0.177100000     0.589400000
 H       0.589400000     0.410600000     0.822900000
 H       0.589400000     0.589400000     0.177100000
 C       0.500000000     0.500000000     0.262100000
 H       0.410600000     0.589400000     0.822900000
 C       0.500000000     0.500000000     0.737900000
 H       0.177100000     0.410600000     0.410600000
 H       0.822900000     0.589400000     0.410600000
 H       0.589400000     0.822900000     0.410600000
 N       0.377800000     0.622200000     0.377800000
 C       0.500000000     0.737900000     0.500000000
 H       0.177100000     0.589400000     0.589400000
 N       0.377800000     0.377800000     0.622200000
 C       0.262100000     0.500000000     0.500000000
 H       0.410600000     0.177100000     0.410600000
 N       0.622200000     0.377800000     0.377800000
 C       0.500000000     0.262100000     0.500000000
 H       0.822900000     0.410600000     0.589400000
 N       0.622200000     0.622200000     0.622200000
 C       0.737900000     0.500000000     0.500000000
 H      -0.089400000    -0.089400000    -0.322900000
 H      -0.089400000     0.322900000     0.089400000
 H       0.089400000    -0.322900000     0.089400000
 H       0.089400000    -0.089400000     0.322900000
 H       0.089400000     0.089400000    -0.322900000
 C       0.000000000     0.000000000    -0.237900000
 H      -0.089400000     0.089400000     0.322900000
 C       0.000000000     0.000000000     0.237900000
 H      -0.322900000    -0.089400000    -0.089400000
 H       0.322900000     0.089400000    -0.089400000
 H       0.089400000     0.322900000    -0.089400000
 N      -0.122200000     0.122200000    -0.122200000
 C       0.000000000     0.237900000     0.000000000
 H      -0.322900000     0.089400000     0.089400000
 N      -0.122200000    -0.122200000     0.122200000
 C      -0.237900000     0.000000000     0.000000000
 H      -0.089400000    -0.322900000    -0.089400000
 N       0.122200000    -0.122200000    -0.122200000
 C       0.000000000    -0.237900000     0.000000000
K_POINTS {automatic}
 4 4 4  1 1 1 
