    &CONTROL 
calculation = 'scf'
prefix='cmpd_1'
pseudo_dir = './'
outdir='./'
tstress=.true.
tprnfor = .true.
forc_conv_thr=1.0d-4
nstep=200
/
    &SYSTEM 
ibrav=0
celldm(1)=1.889726
nat=44
ntyp=3 
ecutwfc=36
/ 
    &ELECTRONS
mixing_beta=0.7
conv_thr =  1.0d-8
electron_maxstep=200
/
    &IONS
trust_radius_max=0.2
/
    &CELL
cell_dynamics='bfgs'
/
ATOMIC_SPECIES
   C  12.0110   C.UPF
   N  14.0067   N.UPF
   H   1.0079   H.UPF

CELL_PARAMETERS (alat) 
   7.0280000000    0.0000000000    0.0000000000
   0.0000000000    7.0280000000    0.0000000000
   0.0000000000    0.0000000000    7.0280000000

ATOMIC_POSITIONS (crystal)
 N       0.122300000     0.122300000     0.122300000
 C       0.238200000     0.000000000     0.000000000
 H       0.089800000     0.089800000    -0.318700000
 H       0.589800000     0.818700000     0.410200000
 H       0.818700000     0.589800000     0.410200000
 H       0.589800000     0.181300000     0.589800000
 H       0.181300000     0.589800000     0.589800000
 H       0.181300000     0.410200000     0.410200000
 C       0.500000000     0.500000000     0.261800000
 H       0.818700000     0.410200000     0.589800000
 C       0.500000000     0.500000000     0.738200000
 H       0.410200000     0.818700000     0.589800000
 H       0.410200000     0.181300000     0.410200000
 H       0.410200000     0.589800000     0.818700000
 C       0.500000000     0.738200000     0.500000000
 N       0.377700000     0.622300000     0.377700000
 H       0.410200000     0.410200000     0.181300000
 C       0.261800000     0.500000000     0.500000000
 N       0.377700000     0.377700000     0.622300000
 H       0.589800000     0.410200000     0.818700000
 C       0.500000000     0.261800000     0.500000000
 N       0.622300000     0.377700000     0.377700000
 H       0.589800000     0.589800000     0.181300000
 C       0.738200000     0.500000000     0.500000000
 N       0.622300000     0.622300000     0.622300000
 H       0.089800000     0.318700000    -0.089800000
 H       0.318700000     0.089800000    -0.089800000
 H       0.089800000    -0.318700000     0.089800000
 H      -0.318700000     0.089800000     0.089800000
 H      -0.318700000    -0.089800000    -0.089800000
 C       0.000000000     0.000000000    -0.238200000
 H       0.318700000    -0.089800000     0.089800000
 C       0.000000000     0.000000000     0.238200000
 H      -0.089800000     0.318700000     0.089800000
 H      -0.089800000    -0.318700000    -0.089800000
 H      -0.089800000     0.089800000     0.318700000
 C       0.000000000     0.238200000     0.000000000
 N      -0.122300000     0.122300000    -0.122300000
 H      -0.089800000    -0.089800000    -0.318700000
 C      -0.238200000     0.000000000     0.000000000
 N      -0.122300000    -0.122300000     0.122300000
 H       0.089800000    -0.089800000     0.318700000
 C       0.000000000    -0.238200000     0.000000000
 N       0.122300000    -0.122300000    -0.122300000
K_POINTS {automatic}
 4 4 4  1 1 1 
