    &CONTROL 
calculation = 'scf'
prefix='cmpd_5'
pseudo_dir = './'
outdir='./'
tstress=.true.
tprnfor = .true.
forc_conv_thr=1.0d-4
nstep=200
/
    &SYSTEM 
ibrav=0
celldm(1)=1.889726
nat=44
ntyp=3 
ecutwfc=36
/ 
    &ELECTRONS
mixing_beta=0.7
conv_thr =  1.0d-8
electron_maxstep=200
/
    &IONS
trust_radius_max=0.2
/
    &CELL
cell_dynamics='bfgs'
/
ATOMIC_SPECIES
   C  12.0110   C.UPF
   N  14.0067   N.UPF
   H   1.0079   H.UPF

CELL_PARAMETERS (alat) 
   7.0280000000    0.0000000000    0.0000000000
   0.0000000000    7.0280000000    0.0000000000
   0.0000000000    0.0000000000    7.0280000000

ATOMIC_POSITIONS (crystal)
 N       0.122200000     0.122200000     0.122200000
 C       0.237000000     0.000000000     0.000000000
 H       0.090900000     0.090900000    -0.326600000
 H       0.590900000     0.826600000     0.409100000
 H       0.826600000     0.590900000     0.409100000
 H       0.590900000     0.173400000     0.590900000
 H       0.173400000     0.590900000     0.590900000
 H       0.173400000     0.409100000     0.409100000
 C       0.500000000     0.500000000     0.263000000
 H       0.826600000     0.409100000     0.590900000
 C       0.500000000     0.500000000     0.737000000
 H       0.409100000     0.826600000     0.590900000
 H       0.409100000     0.173400000     0.409100000
 H       0.409100000     0.590900000     0.826600000
 C       0.500000000     0.737000000     0.500000000
 N       0.377800000     0.622200000     0.377800000
 H       0.409100000     0.409100000     0.173400000
 C       0.263000000     0.500000000     0.500000000
 N       0.377800000     0.377800000     0.622200000
 H       0.590900000     0.409100000     0.826600000
 C       0.500000000     0.263000000     0.500000000
 N       0.622200000     0.377800000     0.377800000
 H       0.590900000     0.590900000     0.173400000
 C       0.737000000     0.500000000     0.500000000
 N       0.622200000     0.622200000     0.622200000
 H       0.090900000     0.326600000    -0.090900000
 H       0.326600000     0.090900000    -0.090900000
 H       0.090900000    -0.326600000     0.090900000
 H      -0.326600000     0.090900000     0.090900000
 H      -0.326600000    -0.090900000    -0.090900000
 C       0.000000000     0.000000000    -0.237000000
 H       0.326600000    -0.090900000     0.090900000
 C       0.000000000     0.000000000     0.237000000
 H      -0.090900000     0.326600000     0.090900000
 H      -0.090900000    -0.326600000    -0.090900000
 H      -0.090900000     0.090900000     0.326600000
 C       0.000000000     0.237000000     0.000000000
 N      -0.122200000     0.122200000    -0.122200000
 H      -0.090900000    -0.090900000    -0.326600000
 C      -0.237000000     0.000000000     0.000000000
 N      -0.122200000    -0.122200000     0.122200000
 H       0.090900000    -0.090900000     0.326600000
 C       0.000000000    -0.237000000     0.000000000
 N       0.122200000    -0.122200000    -0.122200000
K_POINTS {automatic}
 4 4 4  1 1 1 
