    &CONTROL 
calculation = 'scf'
prefix='cmpd_3'
pseudo_dir = './'
outdir='./'
tstress=.true.
tprnfor = .true.
forc_conv_thr=1.0d-4
nstep=200
/
    &SYSTEM 
ibrav=0
celldm(1)=1.889726
nat=44
ntyp=3 
ecutwfc=36
/ 
    &ELECTRONS
mixing_beta=0.7
conv_thr =  1.0d-8
electron_maxstep=200
/
    &IONS
trust_radius_max=0.2
/
    &CELL
cell_dynamics='bfgs'
/
ATOMIC_SPECIES
   C  12.0110   C.UPF
   N  14.0067   N.UPF
   H   1.0079   H.UPF

CELL_PARAMETERS (alat) 
   7.0280000000    0.0000000000    0.0000000000
   0.0000000000    7.0280000000    0.0000000000
   0.0000000000    0.0000000000    7.0280000000

ATOMIC_POSITIONS (crystal)
 N       0.122100000     1.122100000     0.122100000
 C       0.238400000     1.000000000     0.000000000
 H       0.090500000     1.090500000    -0.321500000
 H       0.590500000     0.821500000     0.409500000
 H       0.821500000     0.590500000     0.409500000
 H       0.590500000     0.178500000     0.590500000
 H       0.178500000     0.590500000     0.590500000
 H       0.178500000     0.409500000     0.409500000
 C       0.500000000     0.500000000     0.261600000
 H       0.821500000     0.409500000     0.590500000
 C       0.500000000     0.500000000     0.738400000
 H       0.409500000     0.821500000     0.590500000
 H       0.409500000     0.178500000     0.409500000
 H       0.409500000     0.590500000     0.821500000
 C       0.500000000     0.738400000     0.500000000
 N       0.377900000     0.622100000     0.377900000
 H       0.409500000     0.409500000     0.178500000
 C       0.261600000     0.500000000     0.500000000
 N       0.377900000     0.377900000     0.622100000
 H       0.590500000     0.409500000     0.821500000
 C       0.500000000     0.261600000     0.500000000
 N       0.622100000     0.377900000     0.377900000
 H       0.590500000     0.590500000     0.178500000
 C       0.738400000     0.500000000     0.500000000
 N       0.622100000     0.622100000     0.622100000
 H       0.090500000     1.321500000    -0.090500000
 H       0.321500000     1.090500000    -0.090500000
 H       0.090500000     0.678500000     0.090500000
 H      -0.321500000     1.090500000     0.090500000
 H      -0.321500000     0.909500000    -0.090500000
 C       0.000000000     1.000000000    -0.238400000
 H       0.321500000     0.909500000     0.090500000
 C       0.000000000     1.000000000     0.238400000
 H      -0.090500000     1.321500000     0.090500000
 H      -0.090500000     0.678500000    -0.090500000
 H      -0.090500000     1.090500000     0.321500000
 C       0.000000000     1.238400000     0.000000000
 N      -0.122100000     1.122100000    -0.122100000
 H      -0.090500000     0.909500000    -0.321500000
 C      -0.238400000     1.000000000     0.000000000
 N      -0.122100000     0.877900000     0.122100000
 H       0.090500000     0.909500000     0.321500000
 C       0.000000000     0.761600000     0.000000000
 N       0.122100000     0.877900000    -0.122100000
K_POINTS {automatic}
 4 4 4  1 1 1 
