    &CONTROL 
calculation = 'scf'
prefix='cmpd_6'
pseudo_dir = './'
outdir='./'
tstress=.true.
tprnfor = .true.
forc_conv_thr=1.0d-4
nstep=200
/
    &SYSTEM 
ibrav=0
celldm(1)=1.889726
nat=44
ntyp=3 
ecutwfc=36
/ 
    &ELECTRONS
mixing_beta=0.7
conv_thr =  1.0d-8
electron_maxstep=200
/
    &IONS
trust_radius_max=0.2
/
    &CELL
cell_dynamics='bfgs'
/
ATOMIC_SPECIES
   C  12.0110   C.UPF
   N  14.0067   N.UPF
   H   1.0079   H.UPF

CELL_PARAMETERS (alat) 
   7.0280000000    0.0000000000    0.0000000000
   0.0000000000    7.0280000000    0.0000000000
   0.0000000000    0.0000000000    7.0280000000

ATOMIC_POSITIONS (crystal)
 N       1.122100000     0.122100000     1.122100000
 C       0.763100000     0.000000000     1.000000000
 H       1.087400000     0.087400000     0.684500000
 H       0.587400000     0.815500000     0.412600000
 H       0.815500000     0.587400000     0.412600000
 H       0.587400000     0.184500000     0.587400000
 H       0.184500000     0.587400000     0.587400000
 H       0.184500000     0.412600000     0.412600000
 C       0.500000000     0.500000000     0.736900000
 H       0.815500000     0.412600000     0.587400000
 C       0.500000000     0.500000000     0.263100000
 H       0.412600000     0.815500000     0.587400000
 H       0.412600000     0.184500000     0.412600000
 H       0.412600000     0.587400000     0.815500000
 C       0.500000000     0.263100000     0.500000000
 N       0.377900000     0.622100000     0.377900000
 H       0.412600000     0.412600000     0.184500000
 C       0.736900000     0.500000000     0.500000000
 N       0.377900000     0.377900000     0.622100000
 H       0.587400000     0.412600000     0.815500000
 C       0.500000000     0.736900000     0.500000000
 N       0.622100000     0.377900000     0.377900000
 H       0.587400000     0.587400000     0.184500000
 C       0.263100000     0.500000000     0.500000000
 N       0.622100000     0.622100000     0.622100000
 H       1.087400000     0.315500000     0.912600000
 H       1.315500000     0.087400000     0.912600000
 H       1.087400000    -0.315500000     1.087400000
 H       0.684500000     0.087400000     1.087400000
 H       0.684500000    -0.087400000     0.912600000
 C       1.000000000     0.000000000     1.236900000
 H       1.315500000    -0.087400000     1.087400000
 C       1.000000000     0.000000000     0.763100000
 H       0.912600000     0.315500000     1.087400000
 H       0.912600000    -0.315500000     0.912600000
 H       0.912600000     0.087400000     1.315500000
 C       1.000000000    -0.236900000     1.000000000
 N       0.877900000     0.122100000     0.877900000
 H       0.912600000    -0.087400000     0.684500000
 C       1.236900000     0.000000000     1.000000000
 N       0.877900000    -0.122100000     1.122100000
 H       1.087400000    -0.087400000     1.315500000
 C       1.000000000     0.236900000     1.000000000
 N       1.122100000    -0.122100000     0.877900000
K_POINTS {automatic}
 4 4 4  1 1 1 
