    &CONTROL 
calculation = 'scf'
prefix='cmpd_7'
pseudo_dir = './'
outdir='./'
tstress=.true.
tprnfor = .true.
forc_conv_thr=1.0d-4
nstep=200
/
    &SYSTEM 
ibrav=0
celldm(1)=1.889726
nat=44
ntyp=3 
ecutwfc=36
/ 
    &ELECTRONS
mixing_beta=0.7
conv_thr =  1.0d-8
electron_maxstep=200
/
    &IONS
trust_radius_max=0.2
/
    &CELL
cell_dynamics='bfgs'
/
ATOMIC_SPECIES
   C  12.0110   C.UPF
   N  14.0067   N.UPF
   H   1.0079   H.UPF

CELL_PARAMETERS (alat) 
   7.0280000000    0.0000000000    0.0000000000
   0.0000000000    7.0280000000    0.0000000000
   0.0000000000    0.0000000000    7.0280000000

ATOMIC_POSITIONS (crystal)
 N       0.122400000     0.122400000     0.122400000
 C       0.235800000     0.000000000     0.000000000
 H       0.090400000     0.090400000     0.322900000
 H       0.590400000     0.177100000     0.409600000
 H       0.177100000     0.590400000     0.409600000
 H       0.590400000     0.822900000     0.590400000
 H       0.822900000     0.590400000     0.590400000
 H       0.822900000     0.409600000     0.409600000
 C       0.500000000     0.500000000     0.264200000
 H       0.177100000     0.409600000     0.590400000
 C       0.500000000     0.500000000     0.735800000
 H       0.409600000     0.177100000     0.590400000
 H       0.409600000     0.822900000     0.409600000
 H       0.409600000     0.590400000     0.177100000
 C       0.500000000     0.735800000     0.500000000
 N       0.377600000     0.622400000     0.377600000
 H       0.409600000     0.409600000     0.822900000
 C       0.264200000     0.500000000     0.500000000
 N       0.377600000     0.377600000     0.622400000
 H       0.590400000     0.409600000     0.177100000
 C       0.500000000     0.264200000     0.500000000
 N       0.622400000     0.377600000     0.377600000
 H       0.590400000     0.590400000     0.822900000
 C       0.735800000     0.500000000     0.500000000
 N       0.622400000     0.622400000     0.622400000
 H       0.090400000    -0.322900000    -0.090400000
 H      -0.322900000     0.090400000    -0.090400000
 H       0.090400000     0.322900000     0.090400000
 H       0.322900000     0.090400000     0.090400000
 H       0.322900000    -0.090400000    -0.090400000
 C       0.000000000     0.000000000    -0.235800000
 H      -0.322900000    -0.090400000     0.090400000
 C       0.000000000     0.000000000     0.235800000
 H      -0.090400000    -0.322900000     0.090400000
 H      -0.090400000     0.322900000    -0.090400000
 H      -0.090400000     0.090400000    -0.322900000
 C       0.000000000     0.235800000     0.000000000
 N      -0.122400000     0.122400000    -0.122400000
 H      -0.090400000    -0.090400000     0.322900000
 C      -0.235800000     0.000000000     0.000000000
 N      -0.122400000    -0.122400000     0.122400000
 H       0.090400000    -0.090400000    -0.322900000
 C       0.000000000    -0.235800000     0.000000000
 N       0.122400000    -0.122400000    -0.122400000
K_POINTS {automatic}
 4 4 4  1 1 1 
