    &CONTROL 
calculation = 'scf'
restart_mode = 'from_scratch'
prefix='hmt-785499-scf-ec80-np32'
pseudo_dir = './pseudo'
outdir='./scratch'
tstress=.true.
tprnfor = .true.
!forc_conv_thr=1.0d-4
verbosity = 'high'
!nstep=200
/
    &SYSTEM 
ibrav=0
celldm(1)=1.889726
nat=44
ntyp=3 
ecutwfc=80
ecutrho=1000
spline_ps = .true.
/ 
    &ELECTRONS
diagonalization = 'david'
mixing_beta=0.7
conv_thr =  1.0e-8
diago_thr_init = 1e-4
!electron_maxstep=200
/
    &IONS
trust_radius_max=0.2
/
    &CELL
cell_dynamics='bfgs'
/
ATOMIC_SPECIES

   C    12.0110  C.pbe-n-kjpaw_psl.0.1.UPF
   N    14.0067  N.pbe-n-kjpaw_psl.0.1.UPF
   H    1.0079   H.pbe-kjpaw_psl.0.1.UPF

CELL_PARAMETERS (alat) 
   7.0280000000    0.0000000000    0.0000000000
   0.0000000000    7.0280000000    0.0000000000
   0.0000000000    0.0000000000    7.0280000000

ATOMIC_POSITIONS (crystal)
 N       0.122300000     1.122300000     0.122300000
 C       0.238200000     1.000000000     0.000000000
 H       0.089800000     1.089800000    -0.318700000
 H       0.589800000     0.818700000     0.410200000
 H       0.818700000     0.589800000     0.410200000
 H       0.589800000     0.181300000     0.589800000
 H       0.181300000     0.589800000     0.589800000
 H       0.181300000     0.410200000     0.410200000
 C       0.500000000     0.500000000     0.261800000
 H       0.818700000     0.410200000     0.589800000
 C       0.500000000     0.500000000     0.738200000
 H       0.410200000     0.818700000     0.589800000
 H       0.410200000     0.181300000     0.410200000
 H       0.410200000     0.589800000     0.818700000
 C       0.500000000     0.738200000     0.500000000
 N       0.377700000     0.622300000     0.377700000
 H       0.410200000     0.410200000     0.181300000
 C       0.261800000     0.500000000     0.500000000
 N       0.377700000     0.377700000     0.622300000
 H       0.589800000     0.410200000     0.818700000
 C       0.500000000     0.261800000     0.500000000
 N       0.622300000     0.377700000     0.377700000
 H       0.589800000     0.589800000     0.181300000
 C       0.738200000     0.500000000     0.500000000
 N       0.622300000     0.622300000     0.622300000
 H       0.089800000     1.318700000    -0.089800000
 H       0.318700000     1.089800000    -0.089800000
 H       0.089800000     0.681300000     0.089800000
 H      -0.318700000     1.089800000     0.089800000
 H      -0.318700000     0.910200000    -0.089800000
 C       0.000000000     1.000000000    -0.238200000
 H       0.318700000     0.910200000     0.089800000
 C       0.000000000     1.000000000     0.238200000
 H      -0.089800000     1.318700000     0.089800000
 H      -0.089800000     0.681300000    -0.089800000
 H      -0.089800000     1.089800000     0.318700000
 C       0.000000000     1.238200000     0.000000000
 N      -0.122300000     1.122300000    -0.122300000
 H      -0.089800000     0.910200000    -0.318700000
 C      -0.238200000     1.000000000     0.000000000
 N      -0.122300000     0.877700000     0.122300000
 H       0.089800000     0.910200000     0.318700000
 C       0.000000000     0.761800000     0.000000000
 N       0.122300000     0.877700000    -0.122300000
K_POINTS {automatic}
 4 4 4  1 1 1 
