    &CONTROL 
calculation = 'scf'
prefix='ab1477_structure_1_of_1'
pseudo_dir = './'
outdir='./'
tstress=.true.
tprnfor = .true.
forc_conv_thr=1.0d-4
nstep=200
/
    &SYSTEM 
ibrav=0
celldm(1)=1.889726
nat=12
ntyp=6 
ecutwfc=36
/ 
    &ELECTRONS
mixing_beta=0.7
conv_thr =  1.0d-8
electron_maxstep=200
/
    &IONS
trust_radius_max=0.2
/
    &CELL
cell_dynamics='bfgs'
/
ATOMIC_SPECIES
  C   12.0110  C.UPF
  Cl  35.4527  Cl.UPF
  H    1.0079  H.UPF

CELL_PARAMETERS (alat) 
  20.000000000    0.0000000000    0.0000000000
   0.000000000   20.0000000000    0.0000000000
   0.000000000    0.0000000000   20.0000000000

ATOMIC_POSITIONS (crystal)
C    0.000298110245   -0.00087724675   -0.06898364845
C    0.000158634745   0.060292465245   -0.0356241585
C    -0.00013821775   0.06119159275   0.034059423995
C    -0.0002981097   0.00087724725   0.068983648495
C    -0.00015863425   -0.0602924652   0.035624158495
C    0.000138218245   -0.0611915922   -0.034059424
H    0.000530828745   0.107063037245   -0.06344986445
H    3.9446245e-05   0.10872863475   0.060555846
H    -0.00053082825   -0.10706303725   0.063449864495
H   -3.944525e-05   -0.1087286342   -0.060555846
Cl   0.00065351375   -0.00202335675   -0.156227692
Cl    -0.00065351375   0.00202335675   0.156227691995


K_POINTS {automatic}
 4 4 4  1 1 1 
