    &CONTROL 
calculation = 'scf'
prefix='UREAXX02'
pseudo_dir = './'
outdir='./'
tstress=.true.
tprnfor = .true.
forc_conv_thr=1.0d-4
nstep=200
/
    &SYSTEM 
ibrav=0
celldm(1)=1.889726
nat=16
ntyp=8 
ecutwfc=36
/ 
    &ELECTRONS
mixing_beta=0.7
conv_thr =  1.0d-8
electron_maxstep=200
/
    &IONS
trust_radius_max=0.2
/
    &CELL
cell_dynamics='bfgs'
/
ATOMIC_SPECIES
  O1  15.9994  O1.UPF
  N1C  14.0067  N1C.UPF
  C1  12.0110  C1.UPF
  H1C   1.0079  H1C.UPF
  H2C   1.0079  H2C.UPF
  H1   1.0079  H1.UPF
  H2   1.0079  H2.UPF
  N1  14.0067  N1.UPF

CELL_PARAMETERS (alat) 
   5.5890000000    0.0000000000    0.0000000000
   0.0000000000    5.5890000000    0.0000000000
   0.0000000000    0.0000000000    4.6947000000

ATOMIC_POSITIONS (crystal)
 C       0.000000000     0.500000000     0.328300000
 O       0.000000000     0.500000000     0.596300000
 N       0.144700000     0.644700000     0.178400000
 H       0.255200000     0.755200000     0.284500000
 H       0.142800000     0.642800000    -0.033900000
 N      -0.144700000     0.355300000     0.178400000
 H      -0.255200000     0.244800000     0.284500000
 H      -0.142800000     0.357200000    -0.033900000
 H       0.357200000     1.142800000     1.033900000
 H       0.244800000     1.255200000     0.715500000
 N       0.355300000     1.144700000     0.821600000
 H       0.642800000     0.857200000     1.033900000
 H       0.755200000     0.744800000     0.715500000
 N       0.644700000     0.855300000     0.821600000
 O       0.500000000     1.000000000     0.403700000
 C       0.500000000     1.000000000     0.671700000
K_POINTS {automatic}
 4 4 4  1 1 1 
