    &CONTROL 
calculation = 'scf'
prefix='urea'
pseudo_dir = './'
outdir='./'
tstress=.true.
tprnfor = .true.
forc_conv_thr=1.0d-4
nstep=200
/
    &SYSTEM 
ibrav=0
celldm(1)=1.889726
nat=16
ntyp=5 
ecutwfc=36
/ 
    &ELECTRONS
mixing_beta=0.7
conv_thr =  1.0d-8
electron_maxstep=200
/
    &IONS
trust_radius_max=0.2
/
    &CELL
cell_dynamics='bfgs'
/
ATOMIC_SPECIES
   C  12.0110   C.UPF
  H1   1.0079  H1.UPF
  H2   1.0079  H2.UPF
   N  14.0067   N.UPF
   O  15.9994   O.UPF

CELL_PARAMETERS (alat) 
   5.6577000000    0.0000000000    0.0000000000
   0.0000000000    5.6577000000    0.0000000000
   0.0000000000    0.0000000000    4.7042000000

ATOMIC_POSITIONS (crystal)
 O       0.500000000     0.000000000    -0.097900000
 C       0.500000000     0.000000000     0.166400000
 N       0.358800000     0.141200000     0.316200000
 H       0.362000000     0.138000000     0.484000000
 H       0.265000000     0.235000000     0.211000000
 H       0.235000000     0.735000000     0.789000000
 H       0.138000000     0.638000000     0.516000000
 N       0.141200000     0.641200000     0.683800000
 H       0.735000000    -0.235000000     0.211000000
 H       0.638000000    -0.138000000     0.484000000
 N       0.641200000    -0.141200000     0.316200000
 H      -0.235000000     0.265000000     0.789000000
 H      -0.138000000     0.362000000     0.516000000
 N      -0.141200000     0.358800000     0.683800000
 C       0.000000000     0.500000000     0.833600000
 O       0.000000000     0.500000000     1.097900000
K_POINTS {automatic}
 4 4 4  1 1 1 
