    &CONTROL 
calculation = 'scf'
prefix='urea_047'
pseudo_dir = './'
outdir='./'
tstress=.true.
tprnfor = .true.
forc_conv_thr=1.0d-4
nstep=200
/
    &SYSTEM 
ibrav=0
celldm(1)=1.889726
nat=16
ntyp=5 
ecutwfc=36
/ 
    &ELECTRONS
mixing_beta=0.7
conv_thr =  1.0d-8
electron_maxstep=200
/
    &IONS
trust_radius_max=0.2
/
    &CELL
cell_dynamics='bfgs'
/
ATOMIC_SPECIES
  O1  15.9994  O1.UPF
  N1  14.0067  N1.UPF
  C1  12.0110  C1.UPF
  H1A   1.0079  H1A.UPF
  H1B   1.0079  H1B.UPF

CELL_PARAMETERS (alat) 
   5.5890000000    0.0000000000    0.0000000000
   0.0000000000    5.5890000000    0.0000000000
   0.0000000000    0.0000000000    4.6800000000

ATOMIC_POSITIONS (crystal)
 C       0.000000000     0.500000000     0.321100000
 N       0.146600000     0.646600000     0.180700000
 H       0.240400000     0.740400000     0.273800000
 H       0.147400000     0.647400000    -0.003100000
 O       0.000000000     0.500000000     0.598600000
 H       0.352600000     1.147400000     1.003100000
 H       0.259600000     1.240400000     0.726200000
 N       0.353400000     1.146600000     0.819300000
 O       0.500000000     1.000000000     0.401400000
 H       0.647400000     0.852600000     1.003100000
 H       0.740400000     0.759600000     0.726200000
 N       0.646600000     0.853400000     0.819300000
 C       0.500000000     1.000000000     0.678900000
 H      -0.147400000     0.352600000    -0.003100000
 H      -0.240400000     0.259600000     0.273800000
 N      -0.146600000     0.353400000     0.180700000
K_POINTS {automatic}
 4 4 4  1 1 1 
