    &CONTROL 
calculation = 'scf'
prefix='HMX'
pseudo_dir = './'
outdir='./'
tstress=.true.
tprnfor = .true.
forc_conv_thr=1.0d-4
nstep=200
/
    &SYSTEM 
ibrav=0
celldm(1)=1.889726
nat=30
ntyp=14 
ecutwfc=36
/ 
    &ELECTRONS
mixing_beta=0.7
conv_thr =  1.0d-8
electron_maxstep=200
/
    &IONS
trust_radius_max=0.2
/
    &CELL
cell_dynamics='bfgs'
/
ATOMIC_SPECIES
  N(2)  14.0067  N(2).UPF
  N(3)  14.0067  N(3).UPF
  C(1)  12.0110  C(1).UPF
  N(4)  14.0067  N(4).UPF
  C(2)  12.0110  C(2).UPF
  O(1)  15.9994  O(1).UPF
  O(2)  15.9994  O(2).UPF
  O(3)  15.9994  O(3).UPF
  O(4)  15.9994  O(4).UPF
  H(1A)   1.0079  H(1A).UPF
  H(1B)   1.0079  H(1B).UPF
  H(2A)   1.0079  H(2A).UPF
  H(2B)   1.0079  H(2B).UPF
  N(1)  14.0067  N(1).UPF

CELL_PARAMETERS (alat) 
   6.5209000000    0.0000000000    0.0000000000
   0.0000000000   10.7610000000    0.0000000000
  -1.5262779958    0.0000000000    7.1450006242

ATOMIC_POSITIONS (crystal)
 O       0.774600000     0.221210000     0.433300000
 O       0.643000000     0.250150000     0.682000000
 O       0.778150000     0.070240000     0.075230000
 O       0.970070000    -0.062170000     0.264220000
 N       0.641700000     0.204600000     0.528220000
 N       0.481340000     0.124340000     0.458190000
 N       0.644120000    -0.027950000     0.291810000
 N       0.806410000    -0.003470000     0.206130000
 C       0.478610000     0.064590000     0.278560000
 C       0.307590000     0.117720000     0.551520000
 H       0.326100000     0.019510000     0.235660000
 H       0.498650000     0.132230000     0.172250000
 H       0.169960000     0.087100000     0.449220000
 H       0.278360000     0.208630000     0.607400000
 H       0.000000000     0.721640000     0.000000000
 H       0.000000000     0.830040000     0.000000000
 H       0.000000000     0.501350000     0.000000000
 H       0.000000000     0.673900000     0.000000000
 C       0.000000000     0.692410000     0.000000000
 C       0.000000000     0.521390000     0.000000000
 N       0.000000000     0.193590000     0.000000000
 N       0.000000000     0.355880000     0.000000000
 N       0.000000000     0.518660000     0.000000000
 N       0.000000000     0.358300000     0.000000000
 O       0.000000000     0.029930000     0.000000000
 O       0.000000000     0.221850000     0.000000000
 O       0.000000000     0.357000000     0.000000000
 O       0.000000000     0.225400000     0.000000000
 O       0.500000000     0.500000000     0.500000000
 O       0.000000000     0.000000000     0.000000000
K_POINTS {automatic}
 4 4 4  1 1 1 
