    &CONTROL 
calculation = 'scf'
prefix='ab1477_structure_1_of_1'
pseudo_dir = './'
outdir='./'
tstress=.true.
tprnfor = .true.
forc_conv_thr=1.0d-4
nstep=200
/
    &SYSTEM 
ibrav=0
celldm(1)=1.889726
nat=12
ntyp=6 
ecutwfc=36
/ 
    &ELECTRONS
mixing_beta=0.7
conv_thr =  1.0d-8
electron_maxstep=200
/
    &IONS
trust_radius_max=0.2
/
    &CELL
cell_dynamics='bfgs'
/
ATOMIC_SPECIES
  C   12.0110  C.UPF
  Cl  35.4527  Cl.UPF
  H    1.0079  H.UPF

CELL_PARAMETERS (angstrom) 
  20.000000000    0.0000000000    0.0000000000
   0.000000000   20.0000000000    0.0000000000
   0.000000000    0.0000000000   20.0000000000

ATOMIC_POSITIONS (angstrom)
C    -0.05801207    -0.08067113    -1.37870134
C     1.16538217    -0.06869203    -0.71161326
C     1.18336472    -0.04377935     0.68184836
C    -0.02292219    -0.03151578     1.3802325 
C    -1.24631644    -0.04349489     0.71314442
C    -1.26429898    -0.06840756    -0.6803172 
H     2.10079361    -0.07356815    -1.2681558 
H     2.13410556    -0.02849723     1.21156832
H    -2.18172788    -0.03861877     1.26968696
H    -2.21503982    -0.08368968    -1.21003716
Cl   -0.08093427    -0.11218692    -3.12331205
Cl    0.00000000     0.00000000     3.12484321


K_POINTS {automatic}
 4 4 4  1 1 1 

