    &CONTROL 
calculation = 'scf'
prefix='ab1477_structure_1_of_1'
pseudo_dir = './'
outdir='./'
tstress=.true.
tprnfor = .true.
forc_conv_thr=1.0d-4
nstep=200
/
    &SYSTEM 
ibrav=0
celldm(1)=1.889726
nat=24
ntyp=6 
ecutwfc=36
/ 
    &ELECTRONS
mixing_beta=0.7
conv_thr =  1.0d-8
electron_maxstep=200
/
    &IONS
trust_radius_max=0.2
/
    &CELL
cell_dynamics='bfgs'
/
ATOMIC_SPECIES
  C3  12.0110  C3.UPF
  Cl  35.4527  Cl.UPF
  H2   1.0079  H2.UPF
  H3   1.0079  H3.UPF
  C1  12.0110  C1.UPF
  C2  12.0110  C2.UPF

CELL_PARAMETERS (alat) 
  14.7620000000    0.0000000000    0.0000000000
   0.0000000000    5.8320000000    0.0000000000
  -1.5638756447    0.0000000000    3.7239513917

ATOMIC_POSITIONS (crystal)
Cl       1.164990000     0.178100000     0.477500000
 C       1.072400000     0.359500000     0.489200000
 C       1.096900000     0.560200000     0.681600000
 H       1.162500000     0.599800000     0.804400000
 C       1.023700000     0.701500000     0.690400000
 H       1.039400000     0.838300000     0.818300000
 H       0.460600000     0.338300000     0.181700000
 C       0.476300000     0.201500000     0.309600000
 H       0.337500000     0.099800000     0.195600000
 C       0.403100000     0.060200000     0.318400000
 C       0.427600000    -0.140500000     0.510800000
Cl       0.335010000    -0.321900000     0.522500000
 H       0.960600000     0.161700000     0.181700000
 C       0.976300000     0.298500000     0.309600000
 H       0.837500000     0.400200000     0.195600000
 C       0.903100000     0.439800000     0.318400000
 C       0.927600000     0.640500000     0.510800000
Cl       0.835010000     0.821900000     0.522500000
 H       0.539400000    -0.338300000     0.818300000
 C       0.523700000    -0.201500000     0.690400000
 H       0.662500000    -0.099800000     0.804400000
 C       0.596900000    -0.060200000     0.681600000
 C       0.572400000     0.140500000     0.489200000
Cl       0.664990000     0.321900000     0.477500000
K_POINTS {automatic}
 4 4 4  1 1 1 
