    &CONTROL 
calculation = 'scf'
restart_mode = 'from_scratch'
prefix='123968-scf-ec80-np32'
pseudo_dir = '../pseudo'
outdir='./scratch/'
tstress=.true.
tprnfor = .true.
!forc_conv_thr=1.0d-4
verbosity = 'high'
nstep=200
/
    &SYSTEM 
ibrav=0
celldm(1)=1.889726
nat=24
ntyp=3 
ecutwfc=80
ecutrho=1000
spline_ps = .true
/ 
    &ELECTRONS
diagonalization = 'david'
mixing_beta=0.7
conv_thr =  1e-8
diago_thr_init = 1e-4
electron_maxstep=200
/
    &IONS
trust_radius_max=0.2
/
    &CELL
cell_dynamics='bfgs'
/
ATOMIC_SPECIES

C   12.0110  C.pbe-n-kjpaw_psl.0.1.UPF
Cl   35.4527  Cl.pbe-n-kjpaw_psl.0.3.0.UPF
H    1.0079  H.pbe-kjpaw_psl.0.1.UPF


CELL_PARAMETERS (alat) 
  14.7620000000    0.0000000000    0.0000000000
   0.0000000000    5.8320000000    0.0000000000
  -1.5638756447    0.0000000000    3.7239513917

ATOMIC_POSITIONS (crystal)
Cl       1.164990000     0.178100000     0.477500000
 C       1.072400000     0.359500000     0.489200000
 C       1.096900000     0.560200000     0.681600000
 H       1.162500000     0.599800000     0.804400000
 C       1.023700000     0.701500000     0.690400000
 H       1.039400000     0.838300000     0.818300000
 H       0.460600000     0.338300000     0.181700000
 C       0.476300000     0.201500000     0.309600000
 H       0.337500000     0.099800000     0.195600000
 C       0.403100000     0.060200000     0.318400000
 C       0.427600000    -0.140500000     0.510800000
Cl       0.335010000    -0.321900000     0.522500000
 H       0.960600000     0.161700000     0.181700000
 C       0.976300000     0.298500000     0.309600000
 H       0.837500000     0.400200000     0.195600000
 C       0.903100000     0.439800000     0.318400000
 C       0.927600000     0.640500000     0.510800000
Cl       0.835010000     0.821900000     0.522500000
 H       0.539400000    -0.338300000     0.818300000
 C       0.523700000    -0.201500000     0.690400000
 H       0.662500000    -0.099800000     0.804400000
 C       0.596900000    -0.060200000     0.681600000
 C       0.572400000     0.140500000     0.489200000
Cl       0.664990000     0.321900000     0.477500000
K_POINTS {automatic}
 4 4 4  1 1 1 
