    &CONTROL 
calculation = 'scf'
prefix='ab1477_structure_1_of_1'
pseudo_dir = './'
outdir='./'
tstress=.true.
tprnfor = .true.
forc_conv_thr=1.0d-4
nstep=200
/
    &SYSTEM 
ibrav=0
celldm(1)=1.889726
nat=12
ntyp=6 
ecutwfc=36
/ 
    &ELECTRONS
mixing_beta=0.7
conv_thr =  1.0d-8
electron_maxstep=200
/
    &IONS
trust_radius_max=0.2
/
    &CELL
cell_dynamics='bfgs'
/
ATOMIC_SPECIES
  C   12.0110  C.UPF
  Cl  35.4527  Cl.UPF
  H    1.0079  H.UPF

CELL_PARAMETERS (angstrom) 
  20.000000000    0.0000000000    0.0000000000
   0.000000000   20.0000000000    0.0000000000
   0.000000000    0.0000000000   20.0000000000

ATOMIC_POSITIONS (angstrom)
C      0.005962204900    -0.017544935000    -1.379672969000
C      0.003172694900    1.205849304900    -0.712483170000
C      -0.002764355000    1.223831855000    0.681188479900
C      -0.005962194000    0.017544945000    1.379672969900
C      -0.003172685000    -1.205849304000    0.712483169900
C      0.002764364900    -1.223831844000    -0.681188480000
H      0.010616574900    2.141260744900    -1.268997289000
H      0.000788924900    2.174572695000    1.211116920000
H      -0.010616565000    -2.141260745000    1.268997289900
H      -0.000788905000    -2.174572684000    -1.211116920000
Cl     0.005962204900    0.747432838989    -2.948109837732
Cl     -0.005962194000    -0.747432828512    2.948109837655
K_POINTS {automatic}
1 1 1 1 1 1  
