    &CONTROL 
calculation 	= 'scf'
restart_mode	= 'from_scratch'
prefix		= 'thiourea-scf-ec50-n8-kpauto'
tstress		= .true.
tprnfor 	= .true.
wf_collect	= .false.
verbosity	= 'high'
pseudo_dir 	= './pseudo'
outdir 	= './scratch'

/
    &SYSTEM 
ibrav=8

a	= 7.68
b	= 8.57
c	= 5.5


nat=8
ntyp=4 


ecutwfc=50
/ 
    &ELECTRONS
mixing_beta=0.7
conv_thr =  1.0d-8
electron_maxstep=200
/
    &IONS
trust_radius_max=0.2
/
    &CELL
cell_dynamics='bfgs'
/
ATOMIC_SPECIES
   C  12.0110	C.pbe-n-kjpaw_psl.0.1.UPF
   S  32.0660	S.pbe-n-kjpaw_psl.0.1.UPF
   N  14.0067	N.pbe-n-kjpaw_psl.0.1.UPF
   H   1.0079   H.pbe-kjpaw_psl.0.1.UPF

! CELL_PARAMETERS (alat) 
!   1.0000000000    0.0000000000    0.0000000000
!   0.0000000000    1.0000000000    0.0000000000
!   0.0000000000    0.0000000000    1.0000000000

ATOMIC_POSITIONS (crystal)
 S       2.081300000     0.000000000     0.000000000
 N      -0.254300000     1.098500000     0.155000000
 N      -0.254300000    -1.098500000    -0.155000000
 C       0.379700000     0.000000000     0.000000000
 H       0.210900000     1.908500000     0.201300000
 H      -1.187100000     1.097300000     0.227000000
 H       0.210900000    -1.908500000    -0.201300000
 H      -1.187100000    -1.097300000    -0.227000000
K_POINTS automatic
 4 4 4  1 1 1 


