    &CONTROL 
calculation = 'scf'
prefix='model'
pseudo_dir = './'
outdir='./'
tstress=.true.
tprnfor = .true.
forc_conv_thr=1.0d-4
nstep=200
/
    &SYSTEM 
ibrav=0
celldm(1)=1.889726
nat=20
ntyp=3 
ecutwfc=36
/ 
    &ELECTRONS
mixing_beta=0.7
conv_thr =  1.0d-8
electron_maxstep=200
/
    &IONS
trust_radius_max=0.2
/
    &CELL
cell_dynamics='bfgs'
/
ATOMIC_SPECIES
  Na1  22.9898  Na1.UPF
  O1  15.9994  O1.UPF
  Cl1  35.4527  Cl1.UPF

CELL_PARAMETERS (alat) 
   6.5600000000    0.0000000000    0.0000000000
   0.0000000000    6.5600000000    0.0000000000
   0.0000000000    0.0000000000    6.5600000000

ATOMIC_POSITIONS (crystal)
Na       0.080000000     0.080000000     0.080000000
Cl       0.430000000     0.430000000     0.430000000
 O       0.300000000     0.590000000     0.470000000
 O       0.030000000     0.700000000     1.090000000
 O      -0.090000000     0.530000000     0.800000000
 O       0.200000000     0.410000000     0.970000000
Cl       0.070000000     0.570000000     0.930000000
Na       0.420000000     0.920000000     0.580000000
 O       0.530000000     0.800000000    -0.090000000
 O       0.410000000     0.970000000     0.200000000
 O       0.700000000     1.090000000     0.030000000
Cl       0.570000000     0.930000000     0.070000000
Na       0.920000000     0.580000000     0.420000000
 O       0.970000000     0.200000000     0.410000000
 O       1.090000000     0.030000000     0.700000000
 O       0.800000000    -0.090000000     0.530000000
Cl       0.930000000     0.070000000     0.570000000
Na       0.580000000     0.420000000     0.920000000
 O       0.470000000     0.300000000     0.590000000
 O       0.590000000     0.470000000     0.300000000
K_POINTS {automatic}
 4 4 4  1 1 1 
