    &CONTROL 
calculation = 'scf'
prefix='model'
pseudo_dir = './'
outdir='./'
tstress=.true.
tprnfor = .true.
forc_conv_thr=1.0d-4
nstep=200
/
    &SYSTEM 
ibrav=0
celldm(1)=1.889726
nat=24
ntyp=4 
ecutwfc=36
/ 
    &ELECTRONS
mixing_beta=0.7
conv_thr =  1.0d-8
electron_maxstep=200
/
    &IONS
trust_radius_max=0.2
/
    &CELL
cell_dynamics='bfgs'
/
ATOMIC_SPECIES
  Na1  22.9898  Na1.UPF
  O1  15.9994  O1.UPF
  O2  15.9994  O2.UPF
  Cl1  35.4527  Cl1.UPF

CELL_PARAMETERS (alat) 
   6.4800000000    0.0000000000    0.0000000000
   0.0000000000    7.0600000000    0.0000000000
   0.0000000000    0.0000000000    7.0800000000

ATOMIC_POSITIONS (crystal)
Na       0.650000000     0.250000000     0.000000000
Cl       0.150000000     0.250000000     0.000000000
 O       0.310000000     0.080000000     0.000000000
 O       0.000000000     0.250000000     0.170000000
 O       0.500000000     0.250000000     0.330000000
 O       0.500000000     0.750000000     0.330000000
 O       0.190000000     0.580000000     0.500000000
 O       0.810000000     0.420000000     0.500000000
 O       0.500000000     0.750000000     0.670000000
 O       0.190000000     0.920000000     0.500000000
Cl       0.350000000     0.750000000     0.500000000
Na       0.850000000     0.750000000     0.500000000
 O       0.500000000     0.250000000     0.670000000
 O       0.810000000     0.080000000     0.500000000
Cl       0.650000000     0.250000000     0.500000000
Na       0.150000000     0.250000000     0.500000000
 O       0.000000000     0.250000000    -0.170000000
 O       1.000000000     0.750000000    -0.170000000
 O       0.690000000     0.580000000     0.000000000
 O       0.310000000     0.420000000     0.000000000
 O       1.000000000     0.750000000     0.170000000
 O       0.690000000     0.920000000     0.000000000
Cl       0.850000000     0.750000000     0.000000000
Na       0.350000000     0.750000000     0.000000000
K_POINTS {automatic}
 4 4 4  1 1 1 
