    &CONTROL 
calculation ='scf'
title='HMX-scf--kp-444-ec-60-default-conv-thr'
prefix='scf.pbe.ec-60.kp-444.HMX-792932.np-8.default-conv-thr'
pseudo_dir = '/users/majewski/.data/PSEUDOPOTENTIALS'
outdir='./scratch'
verbosity='high'
tstress=.true.
tprnfor = .true.
!forc_conv_thr=1.0d-4
nstep=200
/
    &SYSTEM 
ibrav=0
celldm(1)=1.889726
nat=56
ntyp=4 
ecutwfc=60
ecutrho=600
/ 
    &ELECTRONS
mixing_beta=0.7
!conv_thr =  1.0d-4
electron_maxstep=200
/
   &IONS
trust_radius_max=0.2
/
    &CELL
cell_dynamics='bfgs'
/

ATOMIC_SPECIES
  N  14.0067  N.pbe-n-kjpaw_psl.1.0.0.UPF
  C  12.0110  C.pbe-n-kjpaw_psl.1.0.0.UPF
  H   1.0079  H.pbe-kjpaw_psl.1.0.0.UPF
  O  15.9994  O.pbe-n-kjpaw_psl.1.0.0.UPF


CELL_PARAMETERS (alat) 
   6.5206000000    0.0000000000    0.0000000000
   0.0000000000   10.9123000000    0.0000000000
  -1.5844312374    0.0000000000    7.1664382997

ATOMIC_POSITIONS (crystal)
 N      -0.018800000     0.623100000     0.460000000
 O       0.272300000     0.720030000     0.435100000
 N       0.140600000     0.703630000     0.530200000
 N      -0.143100000     0.526230000     0.706400000
 O      -0.274000000     0.429010000     0.923090000
 N      -0.303200000     0.501920000     0.793700000
 O       0.141500000     0.748370000     0.682800000
 C      -0.191200000     0.615900000     0.552800000
 H      -0.320200000     0.590800000     0.462700000
 H      -0.216500000     0.697400000     0.603000000
 O      -0.466020000     0.560910000     0.737400000
 C      -0.021800000     0.565600000     0.280700000
 H      -0.157900000     0.527100000     0.238000000
 H      -0.002000000     0.624400000     0.187000000
 H       0.498000000    -0.124400000    -0.313000000
 H       0.342100000    -0.027100000    -0.262000000
 C       0.478200000    -0.065600000    -0.219300000
 O       0.033980000    -0.060910000     0.237400000
 H       0.283500000    -0.197400000     0.103000000
 H       0.179800000    -0.090800000    -0.037300000
 C       0.308800000    -0.115900000     0.052800000
 O       0.641500000    -0.248370000     0.182800000
 N       0.196800000    -0.001920000     0.293700000
 O       0.226000000     0.070990000     0.423090000
 N       0.356900000    -0.026230000     0.206400000
 N       0.640600000    -0.203630000     0.030200000
 O       0.772300000    -0.220030000    -0.064900000
 N       0.481200000    -0.123100000    -0.040000000
 H       0.002000000     0.375600000     0.813000000
 H       0.157900000     0.472900000     0.762000000
 C       0.021800000     0.434400000     0.719300000
 O       0.466020000     0.439090000     0.262600000
 H       0.216500000     0.302600000     0.397000000
 H       0.320200000     0.409200000     0.537300000
 C       0.191200000     0.384100000     0.447200000
 O      -0.141500000     0.251630000     0.317200000
 N       0.303200000     0.498080000     0.206300000
 O       0.274000000     0.570990000     0.076910000
 N       0.143100000     0.473770000     0.293600000
 N      -0.140600000     0.296370000     0.469800000
 O      -0.272300000     0.279970000     0.564900000
 N       0.018800000     0.376900000     0.540000000
 H       0.502000000     0.124400000     0.313000000
 H       0.657900000     0.027100000     0.262000000
 C       0.521800000     0.065600000     0.219300000
 O       0.966020000     0.060910000    -0.237400000
 H       0.716500000     0.197400000    -0.103000000
 H       0.820200000     0.090800000     0.037300000
 C       0.691200000     0.115900000    -0.052800000
 O       0.358500000     0.248370000    -0.182800000
 N       0.803200000     0.001920000    -0.293700000
 O       0.774000000    -0.070990000    -0.423090000
 N       0.643100000     0.026230000    -0.206400000
 N       0.359400000     0.203630000    -0.030200000
 O       0.227700000     0.220030000     0.064900000
 N       0.518800000     0.123100000     0.040000000
K_POINTS automatic
4 4 4 1 1 1


