    &CONTROL 
calculation = 'scf'
prefix='1976-07-14_MAMC'
pseudo_dir = './'
outdir='./'
tstress=.true.
tprnfor = .true.
forc_conv_thr=1.0d-4
nstep=200
/
    &SYSTEM 
ibrav=0
celldm(1)=1.889726
nat=84
ntyp=5 
ecutwfc=36
/ 
    &ELECTRONS
mixing_beta=0.7
conv_thr =  1.0d-8
electron_maxstep=200
/
    &IONS
trust_radius_max=0.2
/
    &CELL
cell_dynamics='bfgs'
/
ATOMIC_SPECIES
  Cl  35.4527  Cl.UPF
   C  12.0110   C.UPF
  Mn  54.9380  Mn.UPF
   N  14.0067   N.UPF
   H   1.0079   H.UPF

CELL_PARAMETERS (alat) 
   1.0000000000    0.0000000000    0.0000000000
   0.0000000000    1.0000000000    0.0000000000
   0.0000000000    0.0000000000    1.0000000000

ATOMIC_POSITIONS (crystal)
Cl       1.819000000     1.803750000    19.167375000
Cl       0.276488000    -0.000000000     2.494185000
 C       0.429284000    -0.000000000     6.094740000
 H       1.244196000    -0.000000000     5.958870000
 H      -0.080036000     0.541125000     5.298930000
 H      -1.171436000    -0.000000000     7.531080000
 H       0.050932000     0.613275000     8.113380000
Mn       0.000000000     0.000000000     0.000000000
 N      -0.174624000    -0.000000000     7.550490000
 H      -0.080036000    -0.541125000     5.298930000
 H       0.050932000    -0.613275000     8.113380000
Cl       5.457000000     1.803750000     0.242625000
Cl       6.999512000    -0.000000000    16.915815000
Mn       3.638000000     3.607500000     0.000000000
Cl       5.457000000     5.411250000     0.242625000
Cl       1.819000000     5.411250000    19.167375000
 H       3.587068000     2.994225000     8.113380000
 H       3.718036000     3.066375000     5.298930000
 N       3.812624000     3.607500000     7.550490000
 H       3.587068000     4.220775000     8.113380000
 H       4.809436000     3.607500000     7.531080000
 H       3.718036000     4.148625000     5.298930000
 H       2.393804000     3.607500000     5.958870000
 C       3.208716000     3.607500000     6.094740000
 H       3.587068000    -0.613275000    17.818380000
 H       3.718036000    -0.541125000    15.003930000
 N       3.812624000    -0.000000000    17.255490000
 H       3.587068000     0.613275000    17.818380000
 H       4.809436000    -0.000000000    17.236080000
 H       3.718036000     0.541125000    15.003930000
 H       2.393804000    -0.000000000    15.663870000
 C       3.208716000    -0.000000000    15.799740000
Cl       3.361512000     3.607500000     2.494185000
 H       3.688932000     2.994225000    11.296620000
 H       3.557964000     3.066375000    14.111070000
 N       3.463376000     3.607500000    11.859510000
 H       3.688932000     4.220775000    11.296620000
 H       2.466564000     3.607500000    11.878920000
 H       3.557964000     4.148625000    14.111070000
 H       4.882196000     3.607500000    13.451130000
 C       4.067284000     3.607500000    13.315260000
Cl       3.914488000     3.607500000    16.915815000
Cl       3.361512000    -0.000000000    12.199185000
 H       3.688932000    -0.613275000     1.591620000
 H       3.557964000    -0.541125000     4.406070000
 N       3.463376000    -0.000000000     2.154510000
 H       3.688932000     0.613275000     1.591620000
 H       2.466564000    -0.000000000     2.173920000
 H       3.557964000     0.541125000     4.406070000
 H       4.882196000    -0.000000000     3.746130000
 C       4.067284000    -0.000000000     3.610260000
Cl       3.914488000    -0.000000000     7.210815000
 H       7.225068000     2.994225000     1.591620000
 H       7.356036000     3.066375000     4.406070000
 N       7.450624000     3.607500000     2.154510000
 H       7.225068000     4.220775000     1.591620000
 H       8.447436000     3.607500000     2.173920000
 H       7.356036000     4.148625000     4.406070000
 H       6.031804000     3.607500000     3.746130000
 C       6.846716000     3.607500000     3.610260000
 H       7.225068000    -0.613275000    11.296620000
 H       7.356036000    -0.541125000    14.111070000
 N       7.450624000    -0.000000000    11.859510000
 H       7.225068000     0.613275000    11.296620000
 H       8.447436000    -0.000000000    11.878920000
 H       7.356036000     0.541125000    14.111070000
 H       6.031804000    -0.000000000    13.451130000
 C       6.846716000    -0.000000000    13.315260000
Cl       1.819000000     1.803750000     9.462375000
Cl       5.457000000     1.803750000     9.947625000
Mn       3.638000000    -0.000000000     9.705000000
Cl       6.999512000     3.607500000     7.210815000
Cl       5.457000000     5.411250000     9.947625000
 H       0.050932000     2.994225000    17.818380000
 H      -0.080036000     3.066375000    15.003930000
 N      -0.174624000     3.607500000    17.255490000
Mn      -0.000000000     3.607500000     9.705000000
 H       0.050932000     4.220775000    17.818380000
 H      -1.171436000     3.607500000    17.236080000
 H      -0.080036000     4.148625000    15.003930000
 H       1.244196000     3.607500000    15.663870000
 C       0.429284000     3.607500000    15.799740000
Cl       0.276488000     3.607500000    12.199185000
Cl       1.819000000     5.411250000     9.462375000
K_POINTS {automatic}
 4 4 4  1 1 1 
