    &CONTROL 
calculation = 'scf'
prefix='CSD_CIF_MATCMN01'
pseudo_dir = './'
outdir='./'
tstress=.true.
tprnfor = .true.
forc_conv_thr=1.0d-4
nstep=200
/
    &SYSTEM 
ibrav=0
celldm(1)=1.889726
nat=84
ntyp=16 
ecutwfc=36
/ 
    &ELECTRONS
mixing_beta=0.7
conv_thr =  1.0d-8
electron_maxstep=200
/
    &IONS
trust_radius_max=0.2
/
    &CELL
cell_dynamics='bfgs'
/
ATOMIC_SPECIES
  Cl1G  35.4527  Cl1G.UPF
  C1  12.0110  C1.UPF
  Mn1  54.9380  Mn1.UPF
  H1   1.0079  H1.UPF
  H2   1.0079  H2.UPF
  H3   1.0079  H3.UPF
  H4   1.0079  H4.UPF
  H4J   1.0079  H4J.UPF
  Cl1B  35.4527  Cl1B.UPF
  H2J   1.0079  H2J.UPF
  Cl2B  35.4527  Cl2B.UPF
  Mn1E  54.9380  Mn1E.UPF
  Cl1  35.4527  Cl1.UPF
  Cl2  35.4527  Cl2.UPF
  N1  14.0067  N1.UPF
  Cl1E  35.4527  Cl1E.UPF

CELL_PARAMETERS (alat) 
   7.2760000000    0.0000000000    0.0000000000
   0.0000000000    7.2150000000    0.0000000000
   0.0000000000    0.0000000000   19.4100000000

ATOMIC_POSITIONS (crystal)
Cl       0.250000000     0.250000000     0.987500000
Cl       0.038000000     0.000000000     0.128500000
 C       0.059000000     0.000000000     0.314000000
 H       0.171000000     0.000000000     0.307000000
 H      -0.011000000     0.075000000     0.273000000
 H      -0.161000000     0.000000000     0.388000000
 H       0.007000000     0.085000000     0.418000000
Mn       0.000000000     0.000000000     0.000000000
 N      -0.024000000     0.000000000     0.389000000
 H      -0.011000000    -0.075000000     0.273000000
 H       0.007000000    -0.085000000     0.418000000
Cl       0.750000000     0.250000000     0.012500000
Cl       0.962000000     0.000000000     0.871500000
Mn       0.500000000     0.500000000     0.000000000
Cl       0.750000000     0.750000000     0.012500000
Cl       0.250000000     0.750000000     0.987500000
 H       0.493000000     0.415000000     0.418000000
 H       0.511000000     0.425000000     0.273000000
 N       0.524000000     0.500000000     0.389000000
 H       0.493000000     0.585000000     0.418000000
 H       0.661000000     0.500000000     0.388000000
 H       0.511000000     0.575000000     0.273000000
 H       0.329000000     0.500000000     0.307000000
 C       0.441000000     0.500000000     0.314000000
 H       0.493000000    -0.085000000     0.918000000
 H       0.511000000    -0.075000000     0.773000000
 N       0.524000000     0.000000000     0.889000000
 H       0.493000000     0.085000000     0.918000000
 H       0.661000000     0.000000000     0.888000000
 H       0.511000000     0.075000000     0.773000000
 H       0.329000000     0.000000000     0.807000000
 C       0.441000000     0.000000000     0.814000000
Cl       0.462000000     0.500000000     0.128500000
 H       0.507000000     0.415000000     0.582000000
 H       0.489000000     0.425000000     0.727000000
 N       0.476000000     0.500000000     0.611000000
 H       0.507000000     0.585000000     0.582000000
 H       0.339000000     0.500000000     0.612000000
 H       0.489000000     0.575000000     0.727000000
 H       0.671000000     0.500000000     0.693000000
 C       0.559000000     0.500000000     0.686000000
Cl       0.538000000     0.500000000     0.871500000
Cl       0.462000000     0.000000000     0.628500000
 H       0.507000000    -0.085000000     0.082000000
 H       0.489000000    -0.075000000     0.227000000
 N       0.476000000     0.000000000     0.111000000
 H       0.507000000     0.085000000     0.082000000
 H       0.339000000     0.000000000     0.112000000
 H       0.489000000     0.075000000     0.227000000
 H       0.671000000     0.000000000     0.193000000
 C       0.559000000     0.000000000     0.186000000
Cl       0.538000000     0.000000000     0.371500000
 H       0.993000000     0.415000000     0.082000000
 H       1.011000000     0.425000000     0.227000000
 N       1.024000000     0.500000000     0.111000000
 H       0.993000000     0.585000000     0.082000000
 H       1.161000000     0.500000000     0.112000000
 H       1.011000000     0.575000000     0.227000000
 H       0.829000000     0.500000000     0.193000000
 C       0.941000000     0.500000000     0.186000000
 H       0.993000000    -0.085000000     0.582000000
 H       1.011000000    -0.075000000     0.727000000
 N       1.024000000     0.000000000     0.611000000
 H       0.993000000     0.085000000     0.582000000
 H       1.161000000     0.000000000     0.612000000
 H       1.011000000     0.075000000     0.727000000
 H       0.829000000     0.000000000     0.693000000
 C       0.941000000     0.000000000     0.686000000
Cl       0.250000000     0.250000000     0.487500000
Cl       0.750000000     0.250000000     0.512500000
Mn       0.500000000     0.000000000     0.500000000
Cl       0.962000000     0.500000000     0.371500000
Cl       0.750000000     0.750000000     0.512500000
 H       0.007000000     0.415000000     0.918000000
 H      -0.011000000     0.425000000     0.773000000
 N      -0.024000000     0.500000000     0.889000000
Mn       0.000000000     0.500000000     0.500000000
 H       0.007000000     0.585000000     0.918000000
 H      -0.161000000     0.500000000     0.888000000
 H      -0.011000000     0.575000000     0.773000000
 H       0.171000000     0.500000000     0.807000000
 C       0.059000000     0.500000000     0.814000000
Cl       0.038000000     0.500000000     0.628500000
Cl       0.250000000     0.750000000     0.487500000
K_POINTS {automatic}
 4 4 4  1 1 1 
