    &CONTROL 
calculation = 'scf'
prefix='CSD_CIF_MATCMN04'
pseudo_dir = './'
outdir='./'
tstress=.true.
tprnfor = .true.
forc_conv_thr=1.0d-4
nstep=200
/
    &SYSTEM 
ibrav=0
celldm(1)=1.889726
nat=84
ntyp=16 
ecutwfc=36
/ 
    &ELECTRONS
mixing_beta=0.7
conv_thr =  1.0d-8
electron_maxstep=200
/
    &IONS
trust_radius_max=0.2
/
    &CELL
cell_dynamics='bfgs'
/
ATOMIC_SPECIES
  Mn1C  54.9380  Mn1C.UPF
  C1  12.0110  C1.UPF
  Mn1  54.9380  Mn1.UPF
  H1   1.0079  H1.UPF
  H2   1.0079  H2.UPF
  H3   1.0079  H3.UPF
  H4   1.0079  H4.UPF
  H5   1.0079  H5.UPF
  H6   1.0079  H6.UPF
  Cl1D  35.4527  Cl1D.UPF
  Cl2D  35.4527  Cl2D.UPF
  Cl1  35.4527  Cl1.UPF
  Cl2  35.4527  Cl2.UPF
  Cl3  35.4527  Cl3.UPF
  N1  14.0067  N1.UPF
  Cl3D  35.4527  Cl3D.UPF

CELL_PARAMETERS (alat) 
   7.2300000000    0.0000000000    0.0000000000
   0.0000000000    7.2300000000    0.0000000000
   0.0000000000    0.0000000000   19.3200000000

ATOMIC_POSITIONS (crystal)
Mn       0.000000000     0.000000000     0.000000000
Cl       0.250000000     0.250000000     0.982500000
Cl       0.750000000     0.250000000     0.000800000
 H       0.035000000     0.057400000     0.418500000
 H      -0.155600000     0.004900000     0.392200000
 H       0.039800000    -0.148900000     0.390400000
 H       0.151000000    -0.002100000     0.300700000
 H       0.002300000     0.174200000     0.304900000
 H      -0.023200000    -0.062200000     0.277600000
Cl       0.027500000     0.030100000     0.127900000
 C       0.034200000     0.028400000     0.312600000
 N      -0.027500000    -0.015600000     0.384600000
Cl       0.972500000     0.969900000     0.872100000
Cl       0.750000000     0.750000000     0.017500000
Cl       0.250000000     0.750000000     0.999200000
Mn       0.500000000     0.500000000     0.000000000
 N       0.472500000     0.484400000     0.615400000
 C       0.534200000     0.528400000     0.687400000
 H       0.476800000     0.437800000     0.722400000
 H       0.502300000     0.674200000     0.695100000
 H       0.651000000     0.497900000     0.699300000
 H       0.539800000     0.351100000     0.609600000
 H       0.344400000     0.504900000     0.607800000
 H       0.535000000     0.557400000     0.581500000
 N       1.027500000     0.484400000     0.115400000
 C       0.965800000     0.528400000     0.187400000
 H       1.023200000     0.437800000     0.222400000
 H       0.997700000     0.674200000     0.195100000
 H       0.849000000     0.497900000     0.199300000
 H       0.960200000     0.351100000     0.109600000
 H       1.155600000     0.504900000     0.107800000
 H       0.965000000     0.557400000     0.081500000
 N       0.472500000     1.015600000     0.115400000
 C       0.534200000     0.971600000     0.187400000
 H       0.476800000     1.062200000     0.222400000
 H       0.502300000     0.825800000     0.195100000
 H       0.651000000     1.002100000     0.199300000
 H       0.539800000     1.148900000     0.109600000
 H       0.344400000     0.995100000     0.107800000
 H       0.535000000     0.942600000     0.081500000
 N       1.027500000     1.015600000     0.615400000
 C       0.965800000     0.971600000     0.687400000
 H       1.023200000     1.062200000     0.722400000
 H       0.997700000     0.825800000     0.695100000
 H       0.849000000     1.002100000     0.699300000
 H       0.960200000     1.148900000     0.609600000
 H       1.155600000     0.995100000     0.607800000
 H       0.965000000     0.942600000     0.581500000
Cl       0.527500000     0.530100000     0.872100000
 N       0.527500000     0.515600000     0.384600000
 C       0.465800000     0.471600000     0.312600000
Cl       0.472500000     0.469900000     0.127900000
 H       0.523200000     0.562200000     0.277600000
 H       0.497700000     0.325800000     0.304900000
 H       0.349000000     0.502100000     0.300700000
 H       0.460200000     0.648900000     0.390400000
 H       0.655600000     0.495100000     0.392200000
 H       0.465000000     0.442600000     0.418500000
Cl       0.972500000     0.530100000     0.372100000
 N      -0.027500000     0.515600000     0.884600000
 C       0.034200000     0.471600000     0.812600000
Cl       0.027500000     0.469900000     0.627900000
 H      -0.023200000     0.562200000     0.777600000
 H       0.002300000     0.325800000     0.804900000
 H       0.151000000     0.502100000     0.800700000
 H       0.039800000     0.648900000     0.890400000
 H      -0.155600000     0.495100000     0.892200000
 H       0.035000000     0.442600000     0.918500000
Mn       0.000000000     0.500000000     0.500000000
Cl       0.250000000     0.750000000     0.499200000
Cl       0.750000000     0.750000000     0.517500000
Cl       0.527500000     0.969900000     0.372100000
 N       0.527500000    -0.015600000     0.884600000
 C       0.465800000     0.028400000     0.812600000
Cl       0.472500000     0.030100000     0.627900000
 H       0.523200000    -0.062200000     0.777600000
 H       0.497700000     0.174200000     0.804900000
 H       0.349000000    -0.002100000     0.800700000
 H       0.460200000    -0.148900000     0.890400000
 H       0.655600000     0.004900000     0.892200000
 H       0.465000000     0.057400000     0.918500000
Cl       0.750000000     0.250000000     0.500800000
Cl       0.250000000     0.250000000     0.482500000
Mn       0.500000000     0.000000000     0.500000000
K_POINTS {automatic}
 4 4 4  1 1 1 
