    &CONTROL 
calculation = 'scf'
prefix='CSD_CIF_MATCMN07'
pseudo_dir = './'
outdir='./'
tstress=.true.
tprnfor = .true.
forc_conv_thr=1.0d-4
nstep=200
/
    &SYSTEM 
ibrav=0
celldm(1)=1.889726
nat=84
ntyp=16 
ecutwfc=36
/ 
    &ELECTRONS
mixing_beta=0.7
conv_thr =  1.0d-8
electron_maxstep=200
/
    &IONS
trust_radius_max=0.2
/
    &CELL
cell_dynamics='bfgs'
/
ATOMIC_SPECIES
  Cl3H  35.4527  Cl3H.UPF
  C1  12.0110  C1.UPF
  Mn1  54.9380  Mn1.UPF
  H1E   1.0079  H1E.UPF
  H3E   1.0079  H3E.UPF
  Mn1B  54.9380  Mn1B.UPF
  H1   1.0079  H1.UPF
  H2   1.0079  H2.UPF
  H3   1.0079  H3.UPF
  H4   1.0079  H4.UPF
  Cl1E  35.4527  Cl1E.UPF
  Cl1  35.4527  Cl1.UPF
  Cl2  35.4527  Cl2.UPF
  Cl3  35.4527  Cl3.UPF
  N1  14.0067  N1.UPF
  Cl2H  35.4527  Cl2H.UPF

CELL_PARAMETERS (alat) 
   7.2300000000    0.0000000000    0.0000000000
   0.0000000000    7.2300000000    0.0000000000
   0.0000000000    0.0000000000   19.3200000000

ATOMIC_POSITIONS (crystal)
Mn       0.000000000     0.000000000     0.000000000
Cl       0.750000000     0.250000000     0.000000000
Cl       0.250000000     0.250000000     0.982600000
Cl       0.031000000     0.031000000     0.128300000
 C       0.029000000     0.029000000     0.312000000
 N      -0.015000000    -0.015000000     0.385500000
 H       0.163000000    -0.009000000     0.304000000
 H      -0.047000000    -0.047000000     0.279000000
 H       0.016000000    -0.141000000     0.392000000
 H       0.056000000     0.056000000     0.419000000
 H      -0.141000000     0.016000000     0.392000000
 H      -0.009000000     0.163000000     0.304000000
Cl       0.969000000     0.969000000     0.871700000
Cl       0.250000000     0.750000000     0.000000000
Cl       0.750000000     0.750000000     0.017400000
Mn       0.500000000     0.500000000     0.000000000
 H       0.837000000     0.491000000     0.196000000
 H       0.984000000     0.359000000     0.108000000
 H       0.944000000     0.556000000     0.081000000
 H       1.141000000     0.516000000     0.108000000
 H       1.047000000     0.453000000     0.221000000
 H       1.009000000     0.663000000     0.196000000
 N       1.015000000     0.485000000     0.114500000
 C       0.971000000     0.529000000     0.188000000
 H       0.491000000     0.663000000     0.696000000
 H       0.359000000     0.516000000     0.608000000
 H       0.556000000     0.556000000     0.581000000
 H       0.516000000     0.359000000     0.608000000
 H       0.453000000     0.453000000     0.721000000
 H       0.663000000     0.491000000     0.696000000
 N       0.485000000     0.485000000     0.614500000
 C       0.529000000     0.529000000     0.688000000
 H       0.663000000     1.009000000     0.196000000
 H       0.516000000     1.141000000     0.108000000
 H       0.556000000     0.944000000     0.081000000
 H       0.359000000     0.984000000     0.108000000
 H       0.453000000     1.047000000     0.221000000
 H       0.491000000     0.837000000     0.196000000
 N       0.485000000     1.015000000     0.114500000
 C       0.529000000     0.971000000     0.188000000
 H       1.009000000     0.837000000     0.696000000
 H       1.141000000     0.984000000     0.608000000
 H       0.944000000     0.944000000     0.581000000
 H       0.984000000     1.141000000     0.608000000
 H       1.047000000     1.047000000     0.721000000
 H       0.837000000     1.009000000     0.696000000
 N       1.015000000     1.015000000     0.614500000
 C       0.971000000     0.971000000     0.688000000
Cl       0.969000000     0.531000000     0.371700000
 H       0.163000000     0.509000000     0.804000000
 H       0.016000000     0.641000000     0.892000000
 H       0.056000000     0.444000000     0.919000000
 H      -0.141000000     0.484000000     0.892000000
 H      -0.047000000     0.547000000     0.779000000
 H      -0.009000000     0.337000000     0.804000000
 N      -0.015000000     0.515000000     0.885500000
 C       0.029000000     0.471000000     0.812000000
Cl       0.031000000     0.469000000     0.628300000
Cl       0.531000000     0.531000000     0.871700000
 H       0.509000000     0.337000000     0.304000000
 H       0.641000000     0.484000000     0.392000000
 H       0.444000000     0.444000000     0.419000000
 H       0.484000000     0.641000000     0.392000000
 H       0.547000000     0.547000000     0.279000000
 H       0.337000000     0.509000000     0.304000000
 N       0.515000000     0.515000000     0.385500000
 C       0.471000000     0.471000000     0.312000000
Cl       0.469000000     0.469000000     0.128300000
Mn       0.000000000     0.500000000     0.500000000
Cl       0.750000000     0.750000000     0.517400000
Cl       0.750000000     0.250000000     0.500000000
Cl       0.531000000     0.969000000     0.371700000
 H       0.337000000    -0.009000000     0.804000000
 H       0.484000000    -0.141000000     0.892000000
 H       0.444000000     0.056000000     0.919000000
 H       0.641000000     0.016000000     0.892000000
 H       0.547000000    -0.047000000     0.779000000
 H       0.509000000     0.163000000     0.804000000
 N       0.515000000    -0.015000000     0.885500000
 C       0.471000000     0.029000000     0.812000000
Cl       0.469000000     0.031000000     0.628300000
Cl       0.250000000     0.250000000     0.482600000
Cl       0.250000000     0.750000000     0.500000000
Mn       0.500000000     1.000000000     0.500000000
K_POINTS {automatic}
 4 4 4  1 1 1 
